crystal structure from VMoWS2 with Hexag
   1.00000000000000     
     8.3003102791019234    4.8208827661990670    0.0000000000000000
    -8.2775157040179774    4.7814741025315302    0.0000000000000000
     0.0000000000000000    0.0000000000000000   30.0000000000000000
   V    Mo   W    S 
     3     3     3    18
Direct
  0.3407560775437484  0.6709051590681987 -0.0001455593396999
  0.0007070948413069 -0.0045351672425668 -0.0003415565994445
  0.0039589305255602  0.6675868206816228  0.0000541507770377
  0.6526788452378265  0.6565693916337890 -0.0001357345606174
  0.6447714282873469  0.3252578534094729  0.0001857022917413
  0.3522020035477700  0.0219529973035796 -0.0001579153905883
  0.9965042034608919  0.3362689184933023  0.0005652861254735
  0.3540970284045694  0.3312730289146275 -0.0004069076757052
  0.6528541656768688 -0.0066924558533934  0.0002337149233520
  0.1120668739578033  0.2188119591378368  0.9508422904159045
  0.2206786845658184  0.1114210110838881  0.0516556430133867
  0.1146789802989004  0.5607694950814701  0.9500407200560327
  0.2271981420445804  0.4466820221866334  0.0488942853805222
  0.1098484451585546  0.8873956817367290  0.9509393117068029
  0.2238177914539314  0.7787020743369019  0.0481302152427803
  0.4458288594284181  0.2242433970150979  0.9425332941552442
  0.5581543864719670  0.1125729439475357  0.0550591468195674
  0.4378657817052289  0.5541904727491536  0.9474004985122670
  0.5550615436777797  0.4447320504372585  0.0555679224657985
  0.4402756991873180  0.8836808141093372  0.9476819462735289
  0.5469585559031803  0.7741659001127397  0.0526434131858535
  0.7757362732286874  0.2217774648572056  0.9489815078139452
  0.8887919417884810  0.1051859368352876  0.0500469904240470
  0.7818566205663036  0.5570105186483076  0.9499543065520725
  0.8874787233014348  0.4487855104219632  0.0502302631520688
  0.7805903332799632  0.8904878086925196  0.9502951669548263
  0.8927970398927290  0.7790128456790725  0.0492517965238032
 
  0.00000000E+00  0.00000000E+00  0.00000000E+00
  0.00000000E+00  0.00000000E+00  0.00000000E+00
  0.00000000E+00  0.00000000E+00  0.00000000E+00
  0.00000000E+00  0.00000000E+00  0.00000000E+00
  0.00000000E+00  0.00000000E+00  0.00000000E+00
  0.00000000E+00  0.00000000E+00  0.00000000E+00
  0.00000000E+00  0.00000000E+00  0.00000000E+00
  0.00000000E+00  0.00000000E+00  0.00000000E+00
  0.00000000E+00  0.00000000E+00  0.00000000E+00
  0.00000000E+00  0.00000000E+00  0.00000000E+00
  0.00000000E+00  0.00000000E+00  0.00000000E+00
  0.00000000E+00  0.00000000E+00  0.00000000E+00
  0.00000000E+00  0.00000000E+00  0.00000000E+00
  0.00000000E+00  0.00000000E+00  0.00000000E+00
  0.00000000E+00  0.00000000E+00  0.00000000E+00
  0.00000000E+00  0.00000000E+00  0.00000000E+00
  0.00000000E+00  0.00000000E+00  0.00000000E+00
  0.00000000E+00  0.00000000E+00  0.00000000E+00
  0.00000000E+00  0.00000000E+00  0.00000000E+00
  0.00000000E+00  0.00000000E+00  0.00000000E+00
  0.00000000E+00  0.00000000E+00  0.00000000E+00
  0.00000000E+00  0.00000000E+00  0.00000000E+00
  0.00000000E+00  0.00000000E+00  0.00000000E+00
  0.00000000E+00  0.00000000E+00  0.00000000E+00
  0.00000000E+00  0.00000000E+00  0.00000000E+00
  0.00000000E+00  0.00000000E+00  0.00000000E+00
  0.00000000E+00  0.00000000E+00  0.00000000E+00
