crystal structure from VMoWS2 with Hexag
   1.00000000000000     
     8.3477616398041938    4.8121406499562820    0.0000000000000000
    -8.3522835669305042    4.8200910179702525    0.0000000000000000
     0.0000000000000000    0.0000000000000000   30.0000000000000000
   V    Mo   W    S 
     3     3     3    18
Direct
 -0.0023125266920679  0.6863279773073454  0.0002182418181277
  0.6524023437473955  0.3491114598399636 -0.0008283709348721
  0.3501180580336982  0.7040264251256045  0.0018634653153164
  0.6415120679139801  0.6458842495637659 -0.0005328189954698
  0.9940544667311622  0.2959173846030328 -0.0010488644235963
  0.3175418382100015  0.0091840330575056 -0.0004553447935985
  0.0188097837211501  0.0178228850141781  0.0003710182914085
  0.3289417247668986  0.3161784942344786  0.0002203052029302
  0.6912955185183294 -0.0149328685506265  0.0012806994635588
  0.1172347536238624  0.2185722993273829  0.9435222929384561
  0.2219256846951573  0.1121747511762126  0.0567081924847543
  0.1111703549078318  0.5552247745489854  0.9578002919549861
  0.2247840767670743  0.4531346251086464  0.0463448422331212
  0.1104145462924876  0.8872825748911588  0.9462151516896440
  0.2193863568334449  0.7825704083329534  0.0506718190985415
  0.4512561233171695  0.2286259970918243  0.9458618850342950
  0.5655467841007531  0.1158727423975260  0.0437888875338245
  0.4274158846836167  0.5551814884952158  0.9506133065727167
  0.5500063067067898  0.4361298951334893  0.0536788043202956
  0.4531768094368764  0.8978960262741198  0.9507370632548799
  0.5495752017178640  0.7727553533630761  0.0543130291955809
  0.7711101781453736  0.2162941273350296  0.9519171388355756
  0.8941821477998126  0.1029724116806770  0.0570621585370233
  0.7785079468671645  0.5540128245588788  0.9489348430878456
  0.8896184447163472  0.4458506553442055  0.0431712845676624
  0.7847625210916325  0.8793075954731335  0.9478564071785421
  0.8857770567831110  0.7748358627498029  0.0497141697384104
 
  0.00000000E+00  0.00000000E+00  0.00000000E+00
  0.00000000E+00  0.00000000E+00  0.00000000E+00
  0.00000000E+00  0.00000000E+00  0.00000000E+00
  0.00000000E+00  0.00000000E+00  0.00000000E+00
  0.00000000E+00  0.00000000E+00  0.00000000E+00
  0.00000000E+00  0.00000000E+00  0.00000000E+00
  0.00000000E+00  0.00000000E+00  0.00000000E+00
  0.00000000E+00  0.00000000E+00  0.00000000E+00
  0.00000000E+00  0.00000000E+00  0.00000000E+00
  0.00000000E+00  0.00000000E+00  0.00000000E+00
  0.00000000E+00  0.00000000E+00  0.00000000E+00
  0.00000000E+00  0.00000000E+00  0.00000000E+00
  0.00000000E+00  0.00000000E+00  0.00000000E+00
  0.00000000E+00  0.00000000E+00  0.00000000E+00
  0.00000000E+00  0.00000000E+00  0.00000000E+00
  0.00000000E+00  0.00000000E+00  0.00000000E+00
  0.00000000E+00  0.00000000E+00  0.00000000E+00
  0.00000000E+00  0.00000000E+00  0.00000000E+00
  0.00000000E+00  0.00000000E+00  0.00000000E+00
  0.00000000E+00  0.00000000E+00  0.00000000E+00
  0.00000000E+00  0.00000000E+00  0.00000000E+00
  0.00000000E+00  0.00000000E+00  0.00000000E+00
  0.00000000E+00  0.00000000E+00  0.00000000E+00
  0.00000000E+00  0.00000000E+00  0.00000000E+00
  0.00000000E+00  0.00000000E+00  0.00000000E+00
  0.00000000E+00  0.00000000E+00  0.00000000E+00
  0.00000000E+00  0.00000000E+00  0.00000000E+00
