crystal structure from VMoWS2 with Hexag
   1.00000000000000     
     8.3676426106782849    4.8646044736322622    0.0000000000000000
    -8.3043034129892668    4.7550055417496599    0.0000000000000000
     0.0000000000000000    0.0000000000000000   30.0000000000000000
   V    Mo   W    S 
     3     3     3    18
Direct
  0.6436053585510508  0.3337866080632753  0.0008302656846406
 -0.0240331855027177 -0.0149385238983259  0.0001700978657477
  0.0307569593158329  0.6833625068415692 -0.0017546747655413
  0.3620393592207741  0.3410878553065838 -0.0005934312328578
  0.6423522036109369  0.6654237361050984  0.0005072047876879
  0.3477134601660490  0.0192114256564105  0.0006638210278180
  0.9690304972676037  0.3095139531519747  0.0003120371570337
  0.3616880412698279  0.6806331974509530 -0.0002262407835242
  0.6628158656971627 -0.0167658101683271  0.0001723983711357
  0.1089302316443875  0.2143807535712020  0.9528835957483310
  0.2151711085933048  0.1108904165975328  0.0486640732489697
  0.1144477655924508  0.5533924934820885  0.9514375731184420
  0.2192146949554805  0.4429985646544004  0.0468252046754354
  0.1104918593684612  0.8922171842540685  0.9503877512290388
  0.2265970942344528  0.7810131086405548  0.0508399205039744
  0.4534257591720989  0.2289789177759635  0.9449960589474034
  0.5640274110750264  0.1199129455610619  0.0512408879072139
  0.4405153873302974  0.5529502397899300  0.9444184939469957
  0.5606739497915982  0.4467297135771868  0.0549221016512794
  0.4458305190005539  0.8906602919364203  0.9464311407130355
  0.5541198905083395  0.7787116860876433  0.0574919538120360
  0.7652793171154997  0.2196042338350712  0.9492288069287841
  0.8862612585666048  0.1001825178552269  0.0530543516187850
  0.7826846053768505  0.5583026407780914  0.9550192231212763
  0.8866686570807671  0.4479722291166216  0.0477970743658047
  0.7771358427606494  0.8849830376299056  0.9467315100858211
  0.8907705416736204  0.7730185298253530  0.0475486994652136
 
  0.00000000E+00  0.00000000E+00  0.00000000E+00
  0.00000000E+00  0.00000000E+00  0.00000000E+00
  0.00000000E+00  0.00000000E+00  0.00000000E+00
  0.00000000E+00  0.00000000E+00  0.00000000E+00
  0.00000000E+00  0.00000000E+00  0.00000000E+00
  0.00000000E+00  0.00000000E+00  0.00000000E+00
  0.00000000E+00  0.00000000E+00  0.00000000E+00
  0.00000000E+00  0.00000000E+00  0.00000000E+00
  0.00000000E+00  0.00000000E+00  0.00000000E+00
  0.00000000E+00  0.00000000E+00  0.00000000E+00
  0.00000000E+00  0.00000000E+00  0.00000000E+00
  0.00000000E+00  0.00000000E+00  0.00000000E+00
  0.00000000E+00  0.00000000E+00  0.00000000E+00
  0.00000000E+00  0.00000000E+00  0.00000000E+00
  0.00000000E+00  0.00000000E+00  0.00000000E+00
  0.00000000E+00  0.00000000E+00  0.00000000E+00
  0.00000000E+00  0.00000000E+00  0.00000000E+00
  0.00000000E+00  0.00000000E+00  0.00000000E+00
  0.00000000E+00  0.00000000E+00  0.00000000E+00
  0.00000000E+00  0.00000000E+00  0.00000000E+00
  0.00000000E+00  0.00000000E+00  0.00000000E+00
  0.00000000E+00  0.00000000E+00  0.00000000E+00
  0.00000000E+00  0.00000000E+00  0.00000000E+00
  0.00000000E+00  0.00000000E+00  0.00000000E+00
  0.00000000E+00  0.00000000E+00  0.00000000E+00
  0.00000000E+00  0.00000000E+00  0.00000000E+00
  0.00000000E+00  0.00000000E+00  0.00000000E+00
