crystal structure from VMoWS2 with Hexag
   1.00000000000000     
     8.3546365195318923    4.8248691201727318    0.0000000000000000
    -8.3380322131792433    4.7960642925367729    0.0000000000000000
     0.0000000000000000    0.0000000000000000   30.0000000000000000
   V    Mo   W    S 
     3     3     3    18
Direct
 -0.0219268607999846  0.6664513304371996  0.0000587279628548
  0.3170297789133224  0.0190154303634481 -0.0008517156660442
  0.9637958273003080  0.3121336953345734  0.0013990810875704
  0.3707112197308660  0.6679370728769108 -0.0002874877152264
 -0.0246904292460236 -0.0183718882282935  0.0005008974545301
  0.6603349447979393  0.3516391892705115 -0.0004438517018747
  0.3680270281431413  0.3558152497542207 -0.0006512688056689
  0.6791519832146707 -0.0218158446296440  0.0004473936637199
  0.6686643943246503  0.6665273787906641 -0.0000103260721043
  0.1130857820594253  0.2294722232943123  0.9566613263934052
  0.2215056533275939  0.1190168150034694  0.0497270096160043
  0.1110547105311545  0.5532615137556925  0.9582277591303279
  0.2186163428808814  0.4411547475665728  0.0474796547607172
  0.1082052840520667  0.8854519165657989  0.9492019713815708
  0.2241506789142145  0.7796806414555887  0.0420713272417919
  0.4413402151776100  0.2204629561539465  0.9455398625775657
  0.5500845444077996  0.1035593159212629  0.0433154316041056
  0.4554366318385292  0.5557053493250704  0.9428059483022998
  0.5616585347287761  0.4514190714133791  0.0566026364965714
  0.4453121711241532  0.8930956057985008  0.9518722741445693
  0.5660583506643871  0.7777374587919820  0.0569473026905245
  0.7700622295639539  0.2150074417603396  0.9502261501333337
  0.8868567652475973  0.1116090392955435  0.0547924159010220
  0.7848382659835222  0.5584990053598359  0.9454890803572258
  0.8888137137629601  0.4474632299179092  0.0509520038449056
  0.7772214607022879  0.8817577114934895  0.9433604446390500
  0.8928152320911731  0.7745287966352927  0.0545658497772555
 
  0.00000000E+00  0.00000000E+00  0.00000000E+00
  0.00000000E+00  0.00000000E+00  0.00000000E+00
  0.00000000E+00  0.00000000E+00  0.00000000E+00
  0.00000000E+00  0.00000000E+00  0.00000000E+00
  0.00000000E+00  0.00000000E+00  0.00000000E+00
  0.00000000E+00  0.00000000E+00  0.00000000E+00
  0.00000000E+00  0.00000000E+00  0.00000000E+00
  0.00000000E+00  0.00000000E+00  0.00000000E+00
  0.00000000E+00  0.00000000E+00  0.00000000E+00
  0.00000000E+00  0.00000000E+00  0.00000000E+00
  0.00000000E+00  0.00000000E+00  0.00000000E+00
  0.00000000E+00  0.00000000E+00  0.00000000E+00
  0.00000000E+00  0.00000000E+00  0.00000000E+00
  0.00000000E+00  0.00000000E+00  0.00000000E+00
  0.00000000E+00  0.00000000E+00  0.00000000E+00
  0.00000000E+00  0.00000000E+00  0.00000000E+00
  0.00000000E+00  0.00000000E+00  0.00000000E+00
  0.00000000E+00  0.00000000E+00  0.00000000E+00
  0.00000000E+00  0.00000000E+00  0.00000000E+00
  0.00000000E+00  0.00000000E+00  0.00000000E+00
  0.00000000E+00  0.00000000E+00  0.00000000E+00
  0.00000000E+00  0.00000000E+00  0.00000000E+00
  0.00000000E+00  0.00000000E+00  0.00000000E+00
  0.00000000E+00  0.00000000E+00  0.00000000E+00
  0.00000000E+00  0.00000000E+00  0.00000000E+00
  0.00000000E+00  0.00000000E+00  0.00000000E+00
  0.00000000E+00  0.00000000E+00  0.00000000E+00
