crystal structure from VMoWS2 with Hexag
   1.00000000000000     
     8.3214809019618947    4.8258117723439975    0.0000000000000000
    -8.3085459201341809    4.8033676030735473    0.0000000000000000
     0.0000000000000000    0.0000000000000000   30.0000000000000000
   V    Mo   W    S 
     3     3     3    18
Direct
  0.6991663705156328  0.6831630637608654 -0.0015035370103578
  0.2946561517411500  0.6477629283817649  0.0024959708982646
  0.7063449396330868  0.3538422666551069 -0.0024286081554491
  0.0048901629054366  0.0042598852775360 -0.0002549403631809
  0.0038965233777039  0.6876226328286643 -0.0001286402470561
  0.9998353599581659  0.3131704333025583 -0.0000943625296601
  0.2964477970572689 -0.0148316668291829  0.0017499505775137
  0.2980082002759926  0.3129168827073337  0.0014712384035791
  0.7025539387469731  0.0153449573315122 -0.0013895727663800
  0.1075858116440955  0.2178644920263593  0.9433906431389515
  0.2191677346026516  0.1096023161041078  0.0572666480552637
  0.1070985373327525  0.5534907208286324  0.9495516459265744
  0.2197344020202079  0.4445555070112120  0.0549979034496253
  0.1078852662711348  0.8901885274771602  0.9436135073308910
  0.2193500891587505  0.7755900063166784  0.0554337659063639
  0.4484125803697418  0.2239224654960027  0.9552185090261150
  0.5572334903068796  0.1156640054850282  0.0430666298239273
  0.4435753109065088  0.5579919662291200  0.9577217148011111
  0.5585220137569219  0.4445258906465537  0.0423437149350551
  0.4423252756469950  0.8850249129628488  0.9572241792815693
  0.5529556551971277  0.7739037451793243  0.0436133022451827
  0.7811291216939705  0.2251923616878219  0.9449358093981455
  0.8926466401767158  0.1096365480984365  0.0561390737248011
  0.7780961350463165  0.5581616846665961  0.9464021754979753
  0.8939063574480663  0.4471872288691771  0.0500822862281241
  0.7773391499621977  0.8844174010786361  0.9451607730294995
  0.8854514376845369  0.7780432898977185  0.0539201185935426
 
  0.00000000E+00  0.00000000E+00  0.00000000E+00
  0.00000000E+00  0.00000000E+00  0.00000000E+00
  0.00000000E+00  0.00000000E+00  0.00000000E+00
  0.00000000E+00  0.00000000E+00  0.00000000E+00
  0.00000000E+00  0.00000000E+00  0.00000000E+00
  0.00000000E+00  0.00000000E+00  0.00000000E+00
  0.00000000E+00  0.00000000E+00  0.00000000E+00
  0.00000000E+00  0.00000000E+00  0.00000000E+00
  0.00000000E+00  0.00000000E+00  0.00000000E+00
  0.00000000E+00  0.00000000E+00  0.00000000E+00
  0.00000000E+00  0.00000000E+00  0.00000000E+00
  0.00000000E+00  0.00000000E+00  0.00000000E+00
  0.00000000E+00  0.00000000E+00  0.00000000E+00
  0.00000000E+00  0.00000000E+00  0.00000000E+00
  0.00000000E+00  0.00000000E+00  0.00000000E+00
  0.00000000E+00  0.00000000E+00  0.00000000E+00
  0.00000000E+00  0.00000000E+00  0.00000000E+00
  0.00000000E+00  0.00000000E+00  0.00000000E+00
  0.00000000E+00  0.00000000E+00  0.00000000E+00
  0.00000000E+00  0.00000000E+00  0.00000000E+00
  0.00000000E+00  0.00000000E+00  0.00000000E+00
  0.00000000E+00  0.00000000E+00  0.00000000E+00
  0.00000000E+00  0.00000000E+00  0.00000000E+00
  0.00000000E+00  0.00000000E+00  0.00000000E+00
  0.00000000E+00  0.00000000E+00  0.00000000E+00
  0.00000000E+00  0.00000000E+00  0.00000000E+00
  0.00000000E+00  0.00000000E+00  0.00000000E+00
