crystal structure from VMoWS2 with Hexag
   1.00000000000000     
     8.2942065439444761    4.7841639351512093    0.0000000000000000
    -8.3224864135673986    4.8330686042269315    0.0000000000000000
     0.0000000000000000    0.0000000000000000   30.0000000000000000
   V    Mo   W    S 
     3     3     3    18
Direct
 -0.0171422564546970  0.6333913386950178 -0.0019020387780279
  0.0223279334860768  0.0354790155472287  0.0013762654443124
  0.6787427041865229  0.0349618694464321  0.0018974551487513
  0.6634776029698505  0.3313251686804396  0.0002076686486273
  0.3542859967897435  0.0381286793086409  0.0017103766768122
  0.9852030898696078  0.3399011329616719  0.0004539604823083
  0.3527870756535014  0.3347784257537379 -0.0000260890689786
  0.3103388568895206  0.6257644476043308 -0.0026266909672757
  0.6522640510165723  0.6323694144297554 -0.0010729201489123
  0.1138016225817226  0.2269052662289772  0.9497606181299619
  0.2223498283437444  0.1152215032622915  0.0550433321454447
  0.1022117414447644  0.5528191443166453  0.9439961247303256
  0.2153379356299530  0.4318801474521738  0.0524413681390540
  0.1085760329970512  0.8878266094386780  0.9568957636429954
  0.2200225900761898  0.7763245537703178  0.0428721168209821
  0.4501333510756058  0.2280190301303426  0.9437858330248899
  0.5616452068923997  0.1134438388306975  0.0558176499460413
  0.4441010295247250  0.5503889227572661  0.9434774752699389
  0.5555177819199599  0.4393652833888735  0.0567018260052177
  0.4461833703341072  0.8871358009192741  0.9555975135618614
  0.5535595812524975  0.7788984240787544  0.0432624468256386
  0.7739132972920120  0.2185091643029671  0.9462770964538916
  0.8852814447254986  0.1090436887001913  0.0526310075137845
  0.7823519290228557  0.5560492580668458  0.9450390868149111
  0.8879826099321536  0.4495039735841097  0.0545018699595181
  0.7796390853554876  0.8912262558575123  0.9580231865012503
  0.8933209606295489  0.7795540959643956  0.0438575962766606
 
  0.00000000E+00  0.00000000E+00  0.00000000E+00
  0.00000000E+00  0.00000000E+00  0.00000000E+00
  0.00000000E+00  0.00000000E+00  0.00000000E+00
  0.00000000E+00  0.00000000E+00  0.00000000E+00
  0.00000000E+00  0.00000000E+00  0.00000000E+00
  0.00000000E+00  0.00000000E+00  0.00000000E+00
  0.00000000E+00  0.00000000E+00  0.00000000E+00
  0.00000000E+00  0.00000000E+00  0.00000000E+00
  0.00000000E+00  0.00000000E+00  0.00000000E+00
  0.00000000E+00  0.00000000E+00  0.00000000E+00
  0.00000000E+00  0.00000000E+00  0.00000000E+00
  0.00000000E+00  0.00000000E+00  0.00000000E+00
  0.00000000E+00  0.00000000E+00  0.00000000E+00
  0.00000000E+00  0.00000000E+00  0.00000000E+00
  0.00000000E+00  0.00000000E+00  0.00000000E+00
  0.00000000E+00  0.00000000E+00  0.00000000E+00
  0.00000000E+00  0.00000000E+00  0.00000000E+00
  0.00000000E+00  0.00000000E+00  0.00000000E+00
  0.00000000E+00  0.00000000E+00  0.00000000E+00
  0.00000000E+00  0.00000000E+00  0.00000000E+00
  0.00000000E+00  0.00000000E+00  0.00000000E+00
  0.00000000E+00  0.00000000E+00  0.00000000E+00
  0.00000000E+00  0.00000000E+00  0.00000000E+00
  0.00000000E+00  0.00000000E+00  0.00000000E+00
  0.00000000E+00  0.00000000E+00  0.00000000E+00
  0.00000000E+00  0.00000000E+00  0.00000000E+00
  0.00000000E+00  0.00000000E+00  0.00000000E+00
