crystal structure from VMoWS2 with Hexag
   1.00000000000000     
     8.3115151822823545    4.7913166692737184    0.0000000000000000
    -8.3506377008714310    4.8589755865890911    0.0000000000000000
     0.0000000000000000    0.0000000000000000   30.0000000000000000
   V    Mo   W    S 
     3     3     3    18
Direct
  0.3216784062851327 -0.0089729869664316 -0.0002425601268090
  0.6575375881371274  0.0249523979060416 -0.0013909890764611
  1.0180028734099038  0.3386355678669301  0.0006864622317410
  0.6651452519040676  0.3545365545107233  0.0012659881480499
  0.3299605883045908  0.6394922799394931 -0.0000957285146851
  0.3435535282338951  0.3471910859533598  0.0008700129564817
  0.0305352365792380  0.0356297946182454 -0.0000455509995677
 -0.0132366713855331  0.6374053097750813 -0.0004965596106257
  0.6434524751913125  0.6332387880315309 -0.0009875643343692
  0.1168296029583733  0.2345532007375762  0.9462160417191744
  0.2315437918022563  0.1112067346509533  0.0531564584527181
  0.1084515392076124  0.5470759552128861  0.9469283532375591
  0.2174055289752905  0.4376385111196079  0.0549603859793412
  0.1113641618424473  0.8884426688664294  0.9502145401272012
  0.2215685080825467  0.7729741591862597  0.0481617044561600
  0.4441010405698275  0.2176829601776024  0.9505849087008323
  0.5485115846451316  0.1088749476523948  0.0504593407429828
  0.4446821019717633  0.5523446352984152  0.9431197620941726
  0.5534975088142260  0.4455711412602616  0.0577746771472626
  0.4412538145310174  0.8881613495798966  0.9518794738388308
  0.5596549337148298  0.7816556191871268  0.0475458743489002
  0.7820112005870256  0.2295548383555942  0.9515562866071422
  0.8885499314721916  0.1156525821232251  0.0487012989628706
  0.7766923201723518  0.5577167711754052  0.9444434301648535
  0.8899720101283531  0.4345542415177347  0.0524081668681399
  0.7749153590182816  0.8904847095241909  0.9576975321921245
  0.8905802382837196  0.7819606362170445  0.0446281528859562
 
  0.00000000E+00  0.00000000E+00  0.00000000E+00
  0.00000000E+00  0.00000000E+00  0.00000000E+00
  0.00000000E+00  0.00000000E+00  0.00000000E+00
  0.00000000E+00  0.00000000E+00  0.00000000E+00
  0.00000000E+00  0.00000000E+00  0.00000000E+00
  0.00000000E+00  0.00000000E+00  0.00000000E+00
  0.00000000E+00  0.00000000E+00  0.00000000E+00
  0.00000000E+00  0.00000000E+00  0.00000000E+00
  0.00000000E+00  0.00000000E+00  0.00000000E+00
  0.00000000E+00  0.00000000E+00  0.00000000E+00
  0.00000000E+00  0.00000000E+00  0.00000000E+00
  0.00000000E+00  0.00000000E+00  0.00000000E+00
  0.00000000E+00  0.00000000E+00  0.00000000E+00
  0.00000000E+00  0.00000000E+00  0.00000000E+00
  0.00000000E+00  0.00000000E+00  0.00000000E+00
  0.00000000E+00  0.00000000E+00  0.00000000E+00
  0.00000000E+00  0.00000000E+00  0.00000000E+00
  0.00000000E+00  0.00000000E+00  0.00000000E+00
  0.00000000E+00  0.00000000E+00  0.00000000E+00
  0.00000000E+00  0.00000000E+00  0.00000000E+00
  0.00000000E+00  0.00000000E+00  0.00000000E+00
  0.00000000E+00  0.00000000E+00  0.00000000E+00
  0.00000000E+00  0.00000000E+00  0.00000000E+00
  0.00000000E+00  0.00000000E+00  0.00000000E+00
  0.00000000E+00  0.00000000E+00  0.00000000E+00
  0.00000000E+00  0.00000000E+00  0.00000000E+00
  0.00000000E+00  0.00000000E+00  0.00000000E+00
