crystal structure from VMoWS2 with Hexag
   1.00000000000000     
     8.3977930188649523    4.8156906463759332    0.0000000000000000
    -8.3932426291048525    4.8076746209295784    0.0000000000000000
     0.0000000000000000    0.0000000000000000   30.0000000000000000
   V    Mo   W    S 
     3     3     3    18
Direct
  0.9824773029745817  0.3561404752455282 -0.0015782917049206
  0.3515004815403717  0.6413900070435695  0.0027260918236520
  0.6489606573205180  0.3233906971332260 -0.0004076326590238
 -0.0016471735726783  0.6926723346320600 -0.0017696208072336
  0.3253517170171622  0.0139382150492159 -0.0006966033597031
  0.3492977566122247  0.3221639884316420  0.0008562933076081
  0.0289224586824336 -0.0022302024620252  0.0014575121093317
  0.6468006146365195  0.0215368889936103 -0.0016440589107397
  0.6633063206302062  0.6332641446868307  0.0009985573293933
  0.1080084552604352  0.2252999792337093  0.9540952538548062
  0.2234387546565249  0.1112685102710978  0.0574852029538100
  0.1207288220463634  0.5612736960156667  0.9516026497863239
  0.2138733711819311  0.4356666434257924  0.0481964263164580
  0.1161991962703579  0.8974950748378994  0.9425693992136628
  0.2287478204825512  0.7709705128922661  0.0445284519336474
  0.4511964049513335  0.2223082326308073  0.9446294646008929
  0.5510973627473525  0.1189959552431557  0.0538828064025796
  0.4477936400038964  0.5480807267316437  0.9481631472127758
  0.5571848866577442  0.4347751725819308  0.0562731771449393
  0.4343625156160610  0.8763793511578939  0.9508055866002370
  0.5599224540755658  0.7775448787111592  0.0483980853600421
  0.7750607863426234  0.2318689109315630  0.9474158811234982
  0.8908021049669549  0.1174959599097150  0.0433287591165241
  0.7779917171999180  0.5470322930481859  0.9471865846776345
  0.8841324653110624  0.4503870619732503  0.0488041713703840
  0.7755881103588689  0.8886751110938820  0.9585138084108582
  0.8871154494661178  0.7804298340343175  0.0541787959925627
 
  0.00000000E+00  0.00000000E+00  0.00000000E+00
  0.00000000E+00  0.00000000E+00  0.00000000E+00
  0.00000000E+00  0.00000000E+00  0.00000000E+00
  0.00000000E+00  0.00000000E+00  0.00000000E+00
  0.00000000E+00  0.00000000E+00  0.00000000E+00
  0.00000000E+00  0.00000000E+00  0.00000000E+00
  0.00000000E+00  0.00000000E+00  0.00000000E+00
  0.00000000E+00  0.00000000E+00  0.00000000E+00
  0.00000000E+00  0.00000000E+00  0.00000000E+00
  0.00000000E+00  0.00000000E+00  0.00000000E+00
  0.00000000E+00  0.00000000E+00  0.00000000E+00
  0.00000000E+00  0.00000000E+00  0.00000000E+00
  0.00000000E+00  0.00000000E+00  0.00000000E+00
  0.00000000E+00  0.00000000E+00  0.00000000E+00
  0.00000000E+00  0.00000000E+00  0.00000000E+00
  0.00000000E+00  0.00000000E+00  0.00000000E+00
  0.00000000E+00  0.00000000E+00  0.00000000E+00
  0.00000000E+00  0.00000000E+00  0.00000000E+00
  0.00000000E+00  0.00000000E+00  0.00000000E+00
  0.00000000E+00  0.00000000E+00  0.00000000E+00
  0.00000000E+00  0.00000000E+00  0.00000000E+00
  0.00000000E+00  0.00000000E+00  0.00000000E+00
  0.00000000E+00  0.00000000E+00  0.00000000E+00
  0.00000000E+00  0.00000000E+00  0.00000000E+00
  0.00000000E+00  0.00000000E+00  0.00000000E+00
  0.00000000E+00  0.00000000E+00  0.00000000E+00
  0.00000000E+00  0.00000000E+00  0.00000000E+00
