crystal structure from VMoWS2 with Hexag
   1.00000000000000     
     8.3857637893388972    4.8386564790065743    0.0000000000000000
    -8.3622418108172880    4.7979772830295051    0.0000000000000000
     0.0000000000000000    0.0000000000000000   30.0000000000000000
   V    Mo   W    S 
     3     3     3    18
Direct
  0.3551660860996222  0.0295981593822930 -0.0002587990802207
  0.3408243497191761  0.3483666850691541 -0.0000002719071717
  0.0064974645293590  0.0293064999704867 -0.0002618388807821
  0.6738056539061745  0.0138029894666565 -0.0003710998140028
  0.9723685483733021  0.3216879153416883 -0.0005507953068020
  0.6825728026255685  0.3190557937868239 -0.0003885326112892
 -0.0158168799697328  0.6305289681376394  0.0004717520336824
  0.3526420908123837  0.6601286170584862  0.0011423174030085
  0.6409961819811095  0.6654333666374013  0.0007834445233319
  0.1134179204446773  0.2255397656228190  0.9492497208517926
  0.2253658859184571  0.1177765055833627  0.0479593343793831
  0.1126527386424689  0.5517507193119495  0.9487341223818336
  0.2183510319455177  0.4376645823203465  0.0493282421267477
  0.1104136755413368  0.8881225928848145  0.9579335642378559
  0.2243163111454757  0.7815051230020135  0.0459613620369168
  0.4463910936612885  0.2260051656850266  0.9492800408236262
  0.5518263464200720  0.1081447212133705  0.0536196103912491
  0.4412844348407054  0.5495418391087852  0.9446295788881884
  0.5545705896464641  0.4394243466055260  0.0485058550796121
  0.4392112462136902  0.8891481586651189  0.9508810898664680
  0.5572084040538787  0.7833888675147165  0.0547676039918939
  0.7755280622812173  0.2164134558697395  0.9424470432310026
  0.8895809674361743  0.1087209783049952  0.0535568036308635
  0.7722573356335403  0.5517104433433059  0.9496665629213451
  0.8836898695055644  0.4342305274429714  0.0571298254866317
  0.7830103375434468  0.8896794743937146  0.9502201129268529
  0.8900819044860455  0.7815381917543707  0.0455632495879699
 
  0.00000000E+00  0.00000000E+00  0.00000000E+00
  0.00000000E+00  0.00000000E+00  0.00000000E+00
  0.00000000E+00  0.00000000E+00  0.00000000E+00
  0.00000000E+00  0.00000000E+00  0.00000000E+00
  0.00000000E+00  0.00000000E+00  0.00000000E+00
  0.00000000E+00  0.00000000E+00  0.00000000E+00
  0.00000000E+00  0.00000000E+00  0.00000000E+00
  0.00000000E+00  0.00000000E+00  0.00000000E+00
  0.00000000E+00  0.00000000E+00  0.00000000E+00
  0.00000000E+00  0.00000000E+00  0.00000000E+00
  0.00000000E+00  0.00000000E+00  0.00000000E+00
  0.00000000E+00  0.00000000E+00  0.00000000E+00
  0.00000000E+00  0.00000000E+00  0.00000000E+00
  0.00000000E+00  0.00000000E+00  0.00000000E+00
  0.00000000E+00  0.00000000E+00  0.00000000E+00
  0.00000000E+00  0.00000000E+00  0.00000000E+00
  0.00000000E+00  0.00000000E+00  0.00000000E+00
  0.00000000E+00  0.00000000E+00  0.00000000E+00
  0.00000000E+00  0.00000000E+00  0.00000000E+00
  0.00000000E+00  0.00000000E+00  0.00000000E+00
  0.00000000E+00  0.00000000E+00  0.00000000E+00
  0.00000000E+00  0.00000000E+00  0.00000000E+00
  0.00000000E+00  0.00000000E+00  0.00000000E+00
  0.00000000E+00  0.00000000E+00  0.00000000E+00
  0.00000000E+00  0.00000000E+00  0.00000000E+00
  0.00000000E+00  0.00000000E+00  0.00000000E+00
  0.00000000E+00  0.00000000E+00  0.00000000E+00
