crystal structure from VMoWS2 with Hexag
   1.00000000000000     
     8.3897390762615576    4.8419568060991223    0.0000000000000000
    -8.3801991855294329    4.8255582541511961    0.0000000000000000
     0.0000000000000000    0.0000000000000000   30.0000000000000000
   V    Mo   W    S 
     3     3     3    18
Direct
  0.6426332119271936  0.6670504146966610 -0.0003334483007400
  0.3147789648871310  0.3516936949244250 -0.0006121990276796
  0.6326823486348774 -0.0159715943370918  0.0006772371561135
  1.0136251006471151  0.3668972965776151  0.0002434023524877
  0.3253532369229738  0.6649884387586849 -0.0000051991097003
  0.0192396559625771  0.6650732780964260 -0.0000190789055127
  0.0167329827878303 -0.0228188062141658  0.0017845518870447
  0.3146090793514740 -0.0330106866668263 -0.0000509783380552
  0.7058922415090640  0.3558584769714679 -0.0016181770634217
  0.1099800216229140  0.2201716291200158  0.9516709754716751
  0.2307827961988802  0.1152963001464587  0.0498031025398937
  0.1168192050888688  0.5595988411675555  0.9431590086197623
  0.2235653333094215  0.4453070411234525  0.0545352506014593
  0.1135626429692538  0.8834532725695908  0.9440334349970245
  0.2235385492853106  0.7735329928752321  0.0568956366163323
  0.4452274389291757  0.2254091188388583  0.9596892474630335
  0.5564857251874985  0.1127704687896777  0.0486454422498864
  0.4415134431619748  0.5522303596240808  0.9483160431062083
  0.5508347466983573  0.4454025224034813  0.0458774199702292
  0.4459890179247439  0.8886595284027143  0.9458017251590496
  0.5568216952335087  0.7809353335701311  0.0511580683207488
  0.7811304808406593  0.2184475368722384  0.9501092821722681
  0.8871465457223869  0.1068973951164232  0.0405482540905303
  0.7812819865670410  0.5668937052802093  0.9502684347445035
  0.8947426252829802  0.4495735128127593  0.0562447302346132
  0.7737331921972321  0.8886143352038309  0.9537386066374669
  0.8795121845865308  0.7652600467536655  0.0494391255547718
 
  0.00000000E+00  0.00000000E+00  0.00000000E+00
  0.00000000E+00  0.00000000E+00  0.00000000E+00
  0.00000000E+00  0.00000000E+00  0.00000000E+00
  0.00000000E+00  0.00000000E+00  0.00000000E+00
  0.00000000E+00  0.00000000E+00  0.00000000E+00
  0.00000000E+00  0.00000000E+00  0.00000000E+00
  0.00000000E+00  0.00000000E+00  0.00000000E+00
  0.00000000E+00  0.00000000E+00  0.00000000E+00
  0.00000000E+00  0.00000000E+00  0.00000000E+00
  0.00000000E+00  0.00000000E+00  0.00000000E+00
  0.00000000E+00  0.00000000E+00  0.00000000E+00
  0.00000000E+00  0.00000000E+00  0.00000000E+00
  0.00000000E+00  0.00000000E+00  0.00000000E+00
  0.00000000E+00  0.00000000E+00  0.00000000E+00
  0.00000000E+00  0.00000000E+00  0.00000000E+00
  0.00000000E+00  0.00000000E+00  0.00000000E+00
  0.00000000E+00  0.00000000E+00  0.00000000E+00
  0.00000000E+00  0.00000000E+00  0.00000000E+00
  0.00000000E+00  0.00000000E+00  0.00000000E+00
  0.00000000E+00  0.00000000E+00  0.00000000E+00
  0.00000000E+00  0.00000000E+00  0.00000000E+00
  0.00000000E+00  0.00000000E+00  0.00000000E+00
  0.00000000E+00  0.00000000E+00  0.00000000E+00
  0.00000000E+00  0.00000000E+00  0.00000000E+00
  0.00000000E+00  0.00000000E+00  0.00000000E+00
  0.00000000E+00  0.00000000E+00  0.00000000E+00
  0.00000000E+00  0.00000000E+00  0.00000000E+00
