crystal structure from VMoWS2 with Hexag
   1.00000000000000     
     8.3633905802648414    4.8015998957908126    0.0000000000000000
    -8.3709734746997100    4.8149332426387979    0.0000000000000000
     0.0000000000000000    0.0000000000000000   30.0000000000000000
   V    Mo   W    S 
     3     3     3    18
Direct
  0.6395404900843186  0.3392051865930093 -0.0018117328101360
  0.3598774628062672  0.6542468357021048  0.0018095598333176
  1.0182045293104514  0.3646527947086058 -0.0017366627874935
  0.6729644509103533  0.6737671681054881  0.0002229810137349
  0.3115902987500441  0.0178415634466638 -0.0024227396186070
  0.3355715243699693  0.3247695774472606  0.0006178501123150
 -0.0002795551526458 -0.0215378761715585  0.0008384147196739
 -0.0074911813633825  0.6863368090406140 -0.0006433344144751
  0.6795782874538935 -0.0278748037805879  0.0022317840890822
  0.1008161088300925  0.2206064730219577  0.9527902386937130
  0.2141948805350390  0.1117790670762522  0.0552126299384704
  0.1266543021621866  0.5687156715136046  0.9515526653251937
  0.2197677017320464  0.4476164648832512  0.0513529149748818
  0.1078857684745247  0.8895552003587168  0.9423722960106210
  0.2284444816545491  0.7784913279683655  0.0445190898164840
  0.4434512749160564  0.2267247683934912  0.9439020813295949
  0.5552232476174543  0.1098748037855265  0.0436344059088080
  0.4461073122882748  0.5542359520000695  0.9480318351136222
  0.5545153498608365  0.4389783290692676  0.0530989183324047
  0.4430966296803550  0.8857403004085120  0.9560458549907429
  0.5530329095663912  0.7663993877229834  0.0564015163986532
  0.7740719821412247  0.2203403683430119  0.9571318462957860
  0.8954742202408946  0.1162782705056410  0.0499944499122607
  0.7764672948222385  0.5488192532124176  0.9471894046413202
  0.8809324908297954  0.4430557123677692  0.0458666805070285
  0.7827842339277751  0.8853220224652634  0.9451018243086052
  0.8857379569879706  0.7742738252898752  0.0566951265643864
 
  0.00000000E+00  0.00000000E+00  0.00000000E+00
  0.00000000E+00  0.00000000E+00  0.00000000E+00
  0.00000000E+00  0.00000000E+00  0.00000000E+00
  0.00000000E+00  0.00000000E+00  0.00000000E+00
  0.00000000E+00  0.00000000E+00  0.00000000E+00
  0.00000000E+00  0.00000000E+00  0.00000000E+00
  0.00000000E+00  0.00000000E+00  0.00000000E+00
  0.00000000E+00  0.00000000E+00  0.00000000E+00
  0.00000000E+00  0.00000000E+00  0.00000000E+00
  0.00000000E+00  0.00000000E+00  0.00000000E+00
  0.00000000E+00  0.00000000E+00  0.00000000E+00
  0.00000000E+00  0.00000000E+00  0.00000000E+00
  0.00000000E+00  0.00000000E+00  0.00000000E+00
  0.00000000E+00  0.00000000E+00  0.00000000E+00
  0.00000000E+00  0.00000000E+00  0.00000000E+00
  0.00000000E+00  0.00000000E+00  0.00000000E+00
  0.00000000E+00  0.00000000E+00  0.00000000E+00
  0.00000000E+00  0.00000000E+00  0.00000000E+00
  0.00000000E+00  0.00000000E+00  0.00000000E+00
  0.00000000E+00  0.00000000E+00  0.00000000E+00
  0.00000000E+00  0.00000000E+00  0.00000000E+00
  0.00000000E+00  0.00000000E+00  0.00000000E+00
  0.00000000E+00  0.00000000E+00  0.00000000E+00
  0.00000000E+00  0.00000000E+00  0.00000000E+00
  0.00000000E+00  0.00000000E+00  0.00000000E+00
  0.00000000E+00  0.00000000E+00  0.00000000E+00
  0.00000000E+00  0.00000000E+00  0.00000000E+00
