crystal structure from VMoWS2 with Hexag
   1.00000000000000     
     8.3889437944289789    4.8121913262511988    0.0000000000000000
    -8.3956734854681816    4.8240664559543189    0.0000000000000000
     0.0000000000000000    0.0000000000000000   30.0000000000000000
   V    Mo   W    S 
     3     3     3    18
Direct
  0.6931259950110156  0.6508854815666827  0.0022272324032896
  0.9776815470545820  0.3369688282152559 -0.0008087062314494
  0.3183293265853623  0.3615551932544074 -0.0036671737698436
  0.6465432142872526  0.0168723504229407 -0.0024714260243080
  0.0085610570711954  0.6761258862358324  0.0002247522807531
  0.6791785704142420  0.3206900473891399  0.0013624371659689
  0.0135255014929036 -0.0289645914118516  0.0019122183021759
  0.3356846379550199 -0.0192056991915627  0.0006891402197391
  0.3264019958117417  0.6886750146664630 -0.0006239915948573
  0.1022243524746793  0.2159679235761239  0.9534918370316404
  0.2299204678226863  0.1210726002980811  0.0486199552884376
  0.1102976259825426  0.5501829174911962  0.9477413916520345
  0.2131947784424605  0.4485457664884477  0.0487395148302741
  0.1183967754751671  0.8861166438168440  0.9448655571668723
  0.2214782188626342  0.7786938968179531  0.0568223910349689
  0.4369775326192737  0.2274849086131351  0.9563479320720910
  0.5496965656315115  0.1106087983451695  0.0556324720948295
  0.4569873432335023  0.5693132566615958  0.9519721444567920
  0.5483899761422555  0.4420749541068619  0.0478294657994475
  0.4429148516329608  0.8914750503387368  0.9423225027433400
  0.5612251879252240  0.7765957352813495  0.0444348692370447
  0.7810811350284528  0.2252497990762601  0.9439886429498200
  0.8897008105289917  0.1074558894086261  0.0436388129107619
  0.7801610401369287  0.5514859986743186  0.9486958118970171
  0.8916325062404266  0.4410289434072518  0.0534783089645622
  0.7767799361397076  0.8837490259662235  0.9563990934284270
  0.8881235034342633  0.7675098339620924  0.0561347128901572
 
  0.00000000E+00  0.00000000E+00  0.00000000E+00
  0.00000000E+00  0.00000000E+00  0.00000000E+00
  0.00000000E+00  0.00000000E+00  0.00000000E+00
  0.00000000E+00  0.00000000E+00  0.00000000E+00
  0.00000000E+00  0.00000000E+00  0.00000000E+00
  0.00000000E+00  0.00000000E+00  0.00000000E+00
  0.00000000E+00  0.00000000E+00  0.00000000E+00
  0.00000000E+00  0.00000000E+00  0.00000000E+00
  0.00000000E+00  0.00000000E+00  0.00000000E+00
  0.00000000E+00  0.00000000E+00  0.00000000E+00
  0.00000000E+00  0.00000000E+00  0.00000000E+00
  0.00000000E+00  0.00000000E+00  0.00000000E+00
  0.00000000E+00  0.00000000E+00  0.00000000E+00
  0.00000000E+00  0.00000000E+00  0.00000000E+00
  0.00000000E+00  0.00000000E+00  0.00000000E+00
  0.00000000E+00  0.00000000E+00  0.00000000E+00
  0.00000000E+00  0.00000000E+00  0.00000000E+00
  0.00000000E+00  0.00000000E+00  0.00000000E+00
  0.00000000E+00  0.00000000E+00  0.00000000E+00
  0.00000000E+00  0.00000000E+00  0.00000000E+00
  0.00000000E+00  0.00000000E+00  0.00000000E+00
  0.00000000E+00  0.00000000E+00  0.00000000E+00
  0.00000000E+00  0.00000000E+00  0.00000000E+00
  0.00000000E+00  0.00000000E+00  0.00000000E+00
  0.00000000E+00  0.00000000E+00  0.00000000E+00
  0.00000000E+00  0.00000000E+00  0.00000000E+00
  0.00000000E+00  0.00000000E+00  0.00000000E+00
