crystal structure from VMoWS2 with Hexag
   1.00000000000000     
     8.3249372583235175    4.8389824452881713    0.0000000000000000
    -8.3246858988786432    4.8385484079081404    0.0000000000000000
     0.0000000000000000    0.0000000000000000   30.0000000000000000
   V    Mo   W    S 
     3     3     3    18
Direct
  0.6458158203277206  0.6459007643788105  0.0000049533827299
 -0.0106815555379826  0.6312880119264710 -0.0013312377259230
  0.6312159039778688 -0.0108108919362683  0.0013293685122156
  1.0354490899478253  0.3494549539354059 -0.0002698218284599
  0.3315842321707205  0.3315877052044787 -0.0000010802777055
  0.3494996205615441  0.0354560641576789  0.0002709974476938
  0.0352348181852424  0.0352436632585778  0.0000017621590799
  0.3216933500357747  0.6415293263605125 -0.0001181258348567
  0.6415071879118411  0.3216480771967776  0.0001141919242834
  0.1191502897637329  0.2295836208406449  0.9432442569151643
  0.2295835150593207  0.1191589629514944  0.0567565198430964
  0.1113641002968501  0.5560036556260265  0.9447727308747766
  0.2306020432233148  0.4456313032249081  0.0565665964934907
  0.1097484400576524  0.8853552139214912  0.9523482091701904
  0.2172796435090535  0.7792092909392271  0.0439540717712263
  0.4456432453928323  0.2306179136600974  0.9434287414610890
  0.5560452516663636  0.1113407153920371  0.0552106060149720
  0.4495629342256615  0.5607864525053547  0.9462490852624589
  0.5607912880244867  0.4495728648720758  0.0537444630001707
  0.4368603122265595  0.8880294883395697  0.9503152990616119
  0.5537967820591352  0.7749130809859011  0.0500976162022897
  0.7791827030636470  0.2172330556137780  0.9560580331421819
  0.8853175067925667  0.1097368925355815  0.0476515514196565
  0.7749064807413258  0.5538348412768641  0.9499221146571970
  0.8880197297748756  0.4368509760116827  0.0496889453451995
  0.7775471537925842  0.8915094451217055  0.9581658243505966
  0.8914945661864613  0.7775490051766890  0.0418242264555652
 
  0.00000000E+00  0.00000000E+00  0.00000000E+00
  0.00000000E+00  0.00000000E+00  0.00000000E+00
  0.00000000E+00  0.00000000E+00  0.00000000E+00
  0.00000000E+00  0.00000000E+00  0.00000000E+00
  0.00000000E+00  0.00000000E+00  0.00000000E+00
  0.00000000E+00  0.00000000E+00  0.00000000E+00
  0.00000000E+00  0.00000000E+00  0.00000000E+00
  0.00000000E+00  0.00000000E+00  0.00000000E+00
  0.00000000E+00  0.00000000E+00  0.00000000E+00
  0.00000000E+00  0.00000000E+00  0.00000000E+00
  0.00000000E+00  0.00000000E+00  0.00000000E+00
  0.00000000E+00  0.00000000E+00  0.00000000E+00
  0.00000000E+00  0.00000000E+00  0.00000000E+00
  0.00000000E+00  0.00000000E+00  0.00000000E+00
  0.00000000E+00  0.00000000E+00  0.00000000E+00
  0.00000000E+00  0.00000000E+00  0.00000000E+00
  0.00000000E+00  0.00000000E+00  0.00000000E+00
  0.00000000E+00  0.00000000E+00  0.00000000E+00
  0.00000000E+00  0.00000000E+00  0.00000000E+00
  0.00000000E+00  0.00000000E+00  0.00000000E+00
  0.00000000E+00  0.00000000E+00  0.00000000E+00
  0.00000000E+00  0.00000000E+00  0.00000000E+00
  0.00000000E+00  0.00000000E+00  0.00000000E+00
  0.00000000E+00  0.00000000E+00  0.00000000E+00
  0.00000000E+00  0.00000000E+00  0.00000000E+00
  0.00000000E+00  0.00000000E+00  0.00000000E+00
  0.00000000E+00  0.00000000E+00  0.00000000E+00
