crystal structure from VMoWS2 with Hexag
   1.00000000000000     
     8.3451062596544556    4.8168753221151972    0.0000000000000000
    -8.3678874907682719    4.8562595887321383    0.0000000000000000
     0.0000000000000000    0.0000000000000000   30.0000000000000000
   V    Mo   W    S 
     3     3     3    18
Direct
  0.3172870137606930  0.2985187502746796 -0.0014146850487126
  0.9861115456672633  0.2950173626858853 -0.0014546436609739
  0.6902282695139899  0.3737102202502054  0.0025134744094856
  0.0046069377410157  0.6927127889887266  0.0007381369556516
 -0.0064725647964568 -0.0122190969585128 -0.0006358270921858
  0.6974900709417120  0.6874973236926882  0.0003141799339978
  0.3043884413685927 -0.0174427420577178 -0.0006333807756265
  0.3338637678417196  0.7001236278191860  0.0016364258556075
  0.6779341068943938 -0.0216253397963710 -0.0007217965257482
  0.1103366677739307  0.2202873719920840  0.9477894389141237
  0.2203241911704021  0.1100565191512969  0.0531340381639480
  0.1064740102312550  0.5472973564805400  0.9555837188639131
  0.2162764003701505  0.4400847970151422  0.0437771395075998
  0.1088152614922035  0.8907391039123950  0.9427895257431419
  0.2190651568508736  0.7835774470407012  0.0571258220995332
  0.4478146909364001  0.2254058638350935  0.9514917580829274
  0.5602049347200508  0.1177968059722621  0.0400464826416696
  0.4399084072938452  0.5522216139683040  0.9593225832613910
  0.5509651548184565  0.4441335323495781  0.0478134233690571
  0.4463531332450779  0.8963281458157166  0.9468514207301034
  0.5538154297548864  0.7726797962447487  0.0532079415314397
  0.7741622200863090  0.2224834872029006  0.9527442919553919
  0.8860760690379786  0.1049232487308813  0.0529429154605640
  0.7833514696279095  0.5595996133939124  0.9469364790037792
  0.8959762380163818  0.4459528450143230  0.0481081339812835
  0.7813031479750383  0.8870661685374250  0.9427543515766915
  0.8915542811028997  0.7812878419214980  0.0572385502619360
 
  0.00000000E+00  0.00000000E+00  0.00000000E+00
  0.00000000E+00  0.00000000E+00  0.00000000E+00
  0.00000000E+00  0.00000000E+00  0.00000000E+00
  0.00000000E+00  0.00000000E+00  0.00000000E+00
  0.00000000E+00  0.00000000E+00  0.00000000E+00
  0.00000000E+00  0.00000000E+00  0.00000000E+00
  0.00000000E+00  0.00000000E+00  0.00000000E+00
  0.00000000E+00  0.00000000E+00  0.00000000E+00
  0.00000000E+00  0.00000000E+00  0.00000000E+00
  0.00000000E+00  0.00000000E+00  0.00000000E+00
  0.00000000E+00  0.00000000E+00  0.00000000E+00
  0.00000000E+00  0.00000000E+00  0.00000000E+00
  0.00000000E+00  0.00000000E+00  0.00000000E+00
  0.00000000E+00  0.00000000E+00  0.00000000E+00
  0.00000000E+00  0.00000000E+00  0.00000000E+00
  0.00000000E+00  0.00000000E+00  0.00000000E+00
  0.00000000E+00  0.00000000E+00  0.00000000E+00
  0.00000000E+00  0.00000000E+00  0.00000000E+00
  0.00000000E+00  0.00000000E+00  0.00000000E+00
  0.00000000E+00  0.00000000E+00  0.00000000E+00
  0.00000000E+00  0.00000000E+00  0.00000000E+00
  0.00000000E+00  0.00000000E+00  0.00000000E+00
  0.00000000E+00  0.00000000E+00  0.00000000E+00
  0.00000000E+00  0.00000000E+00  0.00000000E+00
  0.00000000E+00  0.00000000E+00  0.00000000E+00
  0.00000000E+00  0.00000000E+00  0.00000000E+00
  0.00000000E+00  0.00000000E+00  0.00000000E+00
