crystal structure from VMoWS2 with Hexag
   1.00000000000000     
     8.3255396339919781    4.7958231792534969    0.0000000000000000
    -8.3566771939989088    4.8496542753778824    0.0000000000000000
     0.0000000000000000    0.0000000000000000   30.0000000000000000
   V    Mo   W    S 
     3     3     3    18
Direct
 -0.0269108268836432  0.6538089591897167 -0.0001674082769520
  0.6757017216640397  0.0098664500435779  0.0005997221129561
  0.3519840669156409 -0.0050997807508428  0.0017468594243799
  0.3458701730676249  0.6515356498652346 -0.0004857462079821
  0.6726952855424089  0.3494580524940281  0.0002742624761826
  0.6573638038493105  0.6546770721796789 -0.0003578092458605
 -0.0244149989189104 -0.0392310533237688 -0.0015353558580622
  0.9865932423066863  0.3557982807864386  0.0000074626304698
  0.3663375739571013  0.3635152121712493  0.0004178467922734
  0.1088643444599388  0.2215048443301333  0.9583377953009243
  0.2248476649777585  0.1098815054961497  0.0439506869940623
  0.1089910055195006  0.5654477171790088  0.9492604365406105
  0.2204489839300071  0.4403427502841288  0.0518934268304298
  0.1099746813683575  0.8790495152859777  0.9505281075889476
  0.2191156266509086  0.7741132356262604  0.0452324594988955
  0.4403814844336933  0.2180960137672657  0.9502317427142140
  0.5594482901758241  0.1106261797007186  0.0501362608413574
  0.4474338996453088  0.5535634905360673  0.9424630277356957
  0.5583148246212682  0.4478295059726668  0.0568871368831477
  0.4512568948105611  0.8945042880427796  0.9502419354169318
  0.5591784248824180  0.7843605048902372  0.0501914138605208
  0.7745386308091947  0.2237667687220427  0.9489693369315599
  0.8892923210627893  0.1115544214647270  0.0487437127597988
  0.7785791788049825  0.5582767765188865  0.9452951431033556
  0.8892666995299999  0.4548718178826853  0.0554810684288353
  0.7676029906321583  0.8879814516499119  0.9475105122085993
  0.8854584656220594  0.7681148234726253  0.0541458617146844
 
  0.00000000E+00  0.00000000E+00  0.00000000E+00
  0.00000000E+00  0.00000000E+00  0.00000000E+00
  0.00000000E+00  0.00000000E+00  0.00000000E+00
  0.00000000E+00  0.00000000E+00  0.00000000E+00
  0.00000000E+00  0.00000000E+00  0.00000000E+00
  0.00000000E+00  0.00000000E+00  0.00000000E+00
  0.00000000E+00  0.00000000E+00  0.00000000E+00
  0.00000000E+00  0.00000000E+00  0.00000000E+00
  0.00000000E+00  0.00000000E+00  0.00000000E+00
  0.00000000E+00  0.00000000E+00  0.00000000E+00
  0.00000000E+00  0.00000000E+00  0.00000000E+00
  0.00000000E+00  0.00000000E+00  0.00000000E+00
  0.00000000E+00  0.00000000E+00  0.00000000E+00
  0.00000000E+00  0.00000000E+00  0.00000000E+00
  0.00000000E+00  0.00000000E+00  0.00000000E+00
  0.00000000E+00  0.00000000E+00  0.00000000E+00
  0.00000000E+00  0.00000000E+00  0.00000000E+00
  0.00000000E+00  0.00000000E+00  0.00000000E+00
  0.00000000E+00  0.00000000E+00  0.00000000E+00
  0.00000000E+00  0.00000000E+00  0.00000000E+00
  0.00000000E+00  0.00000000E+00  0.00000000E+00
  0.00000000E+00  0.00000000E+00  0.00000000E+00
  0.00000000E+00  0.00000000E+00  0.00000000E+00
  0.00000000E+00  0.00000000E+00  0.00000000E+00
  0.00000000E+00  0.00000000E+00  0.00000000E+00
  0.00000000E+00  0.00000000E+00  0.00000000E+00
  0.00000000E+00  0.00000000E+00  0.00000000E+00
