crystal structure from VMoWS2 with Hexag
   1.00000000000000     
     8.3897924929049914    4.8419826690298091    0.0000000000000000
    -8.3802638214187262    4.8256037701813126    0.0000000000000000
     0.0000000000000000    0.0000000000000000   30.0000000000000000
   V    Mo   W    S 
     3     3     3    18
Direct
  0.3147807869983412  0.0183625422950019 -0.0006124615820001
  0.6426300430414266  0.3337215460670561 -0.0003340597995739
  0.6326769766189495  0.6506960764471773  0.0006777853069705
  0.3253579613987585  0.3316572098725701 -0.0000052182403479
  1.0192403608304406  0.3317398287364562 -0.0000191006820536
  0.0136230450136578  0.0335654849646819  0.0002432997207556
  0.0167345174984831  0.6438418503699581  0.0017845864526644
  0.3146109948380252  0.6336558920854808 -0.0000508313859914
  0.7058917739244082  0.0225280806836951 -0.0016180176521675
  0.1168202977501247  0.2262661509835677  0.9431593141958775
  0.2235645506821755  0.1119736468090310  0.0545349303152785
  0.1135661224575662  0.5501173641471003  0.9440330784363758
  0.2235388856066638  0.4401987206359367  0.0568953109412943
  0.1099784332925540  0.8868348573553756  0.9516725424528808
  0.2307832304310163  0.7819593691627741  0.0498028591610047
  0.4415147840153378  0.2188968146102102  0.9483154082018980
  0.5508351799578904  0.1120723574534782  0.0458765034092038
  0.4459901082375520  0.5553260629143120  0.9458010077891120
  0.5568234422826003  0.4476034265813233  0.0511584656379031
  0.4452278061612926  0.8920752289148023  0.9596894892848643
  0.5564841564268876  0.7794378185349843  0.0486466619181567
  0.7812813861938058  0.2335620674284070  0.9502690375617132
  0.8947422105634875  0.1162419369301489  0.0562452313780857
  0.7737327156794084  0.5552803762673247  0.9537397625466824
  0.8795090167769772  0.4319221610495544  0.0494389406192007
  0.7811290417493657  0.8851153006375858  0.9501102108360372
  0.8871466250097861  0.7735622815395853  0.0405451623761671
 
  0.00000000E+00  0.00000000E+00  0.00000000E+00
  0.00000000E+00  0.00000000E+00  0.00000000E+00
  0.00000000E+00  0.00000000E+00  0.00000000E+00
  0.00000000E+00  0.00000000E+00  0.00000000E+00
  0.00000000E+00  0.00000000E+00  0.00000000E+00
  0.00000000E+00  0.00000000E+00  0.00000000E+00
  0.00000000E+00  0.00000000E+00  0.00000000E+00
  0.00000000E+00  0.00000000E+00  0.00000000E+00
  0.00000000E+00  0.00000000E+00  0.00000000E+00
  0.00000000E+00  0.00000000E+00  0.00000000E+00
  0.00000000E+00  0.00000000E+00  0.00000000E+00
  0.00000000E+00  0.00000000E+00  0.00000000E+00
  0.00000000E+00  0.00000000E+00  0.00000000E+00
  0.00000000E+00  0.00000000E+00  0.00000000E+00
  0.00000000E+00  0.00000000E+00  0.00000000E+00
  0.00000000E+00  0.00000000E+00  0.00000000E+00
  0.00000000E+00  0.00000000E+00  0.00000000E+00
  0.00000000E+00  0.00000000E+00  0.00000000E+00
  0.00000000E+00  0.00000000E+00  0.00000000E+00
  0.00000000E+00  0.00000000E+00  0.00000000E+00
  0.00000000E+00  0.00000000E+00  0.00000000E+00
  0.00000000E+00  0.00000000E+00  0.00000000E+00
  0.00000000E+00  0.00000000E+00  0.00000000E+00
  0.00000000E+00  0.00000000E+00  0.00000000E+00
  0.00000000E+00  0.00000000E+00  0.00000000E+00
  0.00000000E+00  0.00000000E+00  0.00000000E+00
  0.00000000E+00  0.00000000E+00  0.00000000E+00
