crystal structure from VMoWS2 with Hexag
   1.00000000000000     
     8.3561842609094530    4.7948059421525873    0.0000000000000000
    -8.3823718497687771    4.8401634331207131    0.0000000000000000
     0.0000000000000000    0.0000000000000000   30.0000000000000000
   V    Mo   W    S 
     3     3     3    18
Direct
  0.6906270072836919 -0.0125913785989988  0.0015981049269749
  0.3331674990663356  0.6465382135690749 -0.0000084609116564
 -0.0240588226900153  0.6300459606414752 -0.0015844907520692
  0.6471344075436927  0.3495685123654177 -0.0002939849831438
  0.0194278552969788  0.0356794189433697  0.0002923725385861
  0.3332815290994490  0.3321118519819101 -0.0000015696143040
  1.0132467769102775  0.3218713481228568  0.0002071526082010
  0.3332777635308627  0.0358408391536223 -0.0000143975758127
  0.6532894741714917  0.6419120370192271 -0.0001991444476432
  0.1180649457849069  0.2308185730172677  0.9435072897014194
  0.2231185250863479  0.1198405898962378  0.0567508994836874
  0.1122746985513153  0.5533101112891707  0.9496893590386101
  0.2218896362656531  0.4500473002861819  0.0537382363362077
  0.1089572496301167  0.8850976651184888  0.9524768131691979
  0.2192389016547103  0.7778708553376563  0.0417469635146773
  0.4434663222362348  0.2300540436523202  0.9432374543935090
  0.5575705505939059  0.1094146282717064  0.0475058313477336
  0.4446301405324563  0.5614205766614223  0.9462713650487455
  0.5484778957521165  0.4460376469527273  0.0564955649057712
  0.4473068228665424  0.8918650629829946  0.9582520462204223
  0.5541698184056026  0.7742952575256358  0.0503054391670636
  0.7706835772683829  0.2163715461382906  0.9564454707683270
  0.8885389783222339  0.1110148669703861  0.0552651821438528
  0.7780333248418062  0.5557962153812696  0.9447621807327178
  0.8818388927433729  0.4367961345669314  0.0497325092507552
  0.7847025869170640  0.8882081923189376  0.9502623370942231
  0.8958580957714555  0.7789783839119921  0.0435593750939378
 
  0.00000000E+00  0.00000000E+00  0.00000000E+00
  0.00000000E+00  0.00000000E+00  0.00000000E+00
  0.00000000E+00  0.00000000E+00  0.00000000E+00
  0.00000000E+00  0.00000000E+00  0.00000000E+00
  0.00000000E+00  0.00000000E+00  0.00000000E+00
  0.00000000E+00  0.00000000E+00  0.00000000E+00
  0.00000000E+00  0.00000000E+00  0.00000000E+00
  0.00000000E+00  0.00000000E+00  0.00000000E+00
  0.00000000E+00  0.00000000E+00  0.00000000E+00
  0.00000000E+00  0.00000000E+00  0.00000000E+00
  0.00000000E+00  0.00000000E+00  0.00000000E+00
  0.00000000E+00  0.00000000E+00  0.00000000E+00
  0.00000000E+00  0.00000000E+00  0.00000000E+00
  0.00000000E+00  0.00000000E+00  0.00000000E+00
  0.00000000E+00  0.00000000E+00  0.00000000E+00
  0.00000000E+00  0.00000000E+00  0.00000000E+00
  0.00000000E+00  0.00000000E+00  0.00000000E+00
  0.00000000E+00  0.00000000E+00  0.00000000E+00
  0.00000000E+00  0.00000000E+00  0.00000000E+00
  0.00000000E+00  0.00000000E+00  0.00000000E+00
  0.00000000E+00  0.00000000E+00  0.00000000E+00
  0.00000000E+00  0.00000000E+00  0.00000000E+00
  0.00000000E+00  0.00000000E+00  0.00000000E+00
  0.00000000E+00  0.00000000E+00  0.00000000E+00
  0.00000000E+00  0.00000000E+00  0.00000000E+00
  0.00000000E+00  0.00000000E+00  0.00000000E+00
  0.00000000E+00  0.00000000E+00  0.00000000E+00
