crystal structure from VMoWS2 with Hexag
   1.00000000000000     
     8.3082205962806679    4.7856472270711308    0.0000000000000000
    -8.3332618450505294    4.8292909259602768    0.0000000000000000
     0.0000000000000000    0.0000000000000000   30.0000000000000000
   V    Mo   W    S 
     3     3     3    18
Direct
  1.0107308867774665  0.3642597343284156  0.0011229301697863
  0.3572673569363646  0.3725150431916835  0.0028534931754642
  0.6414483962633157 -0.0361055937564753 -0.0027191726248457
  0.6878661365055491  0.3708233224698876  0.0017383462400637
  0.3162804344061617  0.6722811158914248  0.0000771065803468
  0.0009018357099965  0.6685748683809091  0.0000700648247879
 -0.0115540976790478 -0.0344100689969638 -0.0012417601218009
  0.3125778076541125 -0.0362898896661477 -0.0017048581108040
  0.6852203640862642  0.6638418824952371 -0.0000771033984697
  0.1154355269317162  0.2248970108098026  0.9581139066953563
  0.2256687522822234  0.1149117638777993  0.0455034821900086
  0.1071040796014400  0.5510722511012519  0.9456927871990208
  0.2189344079120442  0.4436475195715670  0.0528243426350722
  0.1099562324626892  0.8849857264838200  0.9427675781476401
  0.2175462867281628  0.7744291973278664  0.0564076993471548
  0.4412770530697280  0.2231763761331204  0.9569333009790976
  0.5568366317615211  0.1097243344648904  0.0432913280494992
  0.4476588191326631  0.5604331219476555  0.9501654385093314
  0.5578654836536153  0.4511200997240941  0.0558997823155530
  0.4417432095527531  0.8853969316818506  0.9438423585323020
  0.5533825014812692  0.7743648359122076  0.0498761227399814
  0.7781633690042009  0.2199116168740323  0.9555417108839004
  0.8844522508741220  0.1100243261282931  0.0416958844641780
  0.7832681570758384  0.5605785025363927  0.9437851786554188
  0.8944640109970057  0.4441153873966739  0.0551511937274674
  0.7748571607100988  0.8870806938507861  0.9459734500693988
  0.8888613995457348  0.7728543433175061  0.0564153073250812
 
  0.00000000E+00  0.00000000E+00  0.00000000E+00
  0.00000000E+00  0.00000000E+00  0.00000000E+00
  0.00000000E+00  0.00000000E+00  0.00000000E+00
  0.00000000E+00  0.00000000E+00  0.00000000E+00
  0.00000000E+00  0.00000000E+00  0.00000000E+00
  0.00000000E+00  0.00000000E+00  0.00000000E+00
  0.00000000E+00  0.00000000E+00  0.00000000E+00
  0.00000000E+00  0.00000000E+00  0.00000000E+00
  0.00000000E+00  0.00000000E+00  0.00000000E+00
  0.00000000E+00  0.00000000E+00  0.00000000E+00
  0.00000000E+00  0.00000000E+00  0.00000000E+00
  0.00000000E+00  0.00000000E+00  0.00000000E+00
  0.00000000E+00  0.00000000E+00  0.00000000E+00
  0.00000000E+00  0.00000000E+00  0.00000000E+00
  0.00000000E+00  0.00000000E+00  0.00000000E+00
  0.00000000E+00  0.00000000E+00  0.00000000E+00
  0.00000000E+00  0.00000000E+00  0.00000000E+00
  0.00000000E+00  0.00000000E+00  0.00000000E+00
  0.00000000E+00  0.00000000E+00  0.00000000E+00
  0.00000000E+00  0.00000000E+00  0.00000000E+00
  0.00000000E+00  0.00000000E+00  0.00000000E+00
  0.00000000E+00  0.00000000E+00  0.00000000E+00
  0.00000000E+00  0.00000000E+00  0.00000000E+00
  0.00000000E+00  0.00000000E+00  0.00000000E+00
  0.00000000E+00  0.00000000E+00  0.00000000E+00
  0.00000000E+00  0.00000000E+00  0.00000000E+00
  0.00000000E+00  0.00000000E+00  0.00000000E+00
