crystal structure from VMoWS2 with Hexag
   1.00000000000000     
     8.3189120404995265    4.8042990058251220    0.0000000000000000
    -8.3312363818138913    4.8256495116524603    0.0000000000000000
     0.0000000000000000    0.0000000000000000   30.0000000000000000
   V    Mo   W    S 
     3     3     3    18
Direct
  0.6405334945355795  0.2945454266104842 -0.0015271084421303
  0.6788292313115926 -0.0050118506628483 -0.0004908779411332
  0.3156476401706318  0.2963148357451040 -0.0014816353881628
  0.3129371693813764 -0.0055462301190385 -0.0002882201947501
  0.6873206617254871  0.7050224729502870  0.0021630052731499
  0.0017399179219582 -0.0050106730238159 -0.0003412768152937
  0.9850667203183997  0.2958774676891484 -0.0013442452924264
  0.0053322253402881  0.7020619329617817  0.0009893207135353
  0.3674277146365438  0.7076067520856375  0.0020616597295169
  0.1159879253114766  0.2217987290822405  0.9450583541335651
  0.2212744723224472  0.1122026278256122  0.0541072653739064
  0.1145227114883238  0.5583621760284464  0.9578677982476533
  0.2269317260831806  0.4433915388967783  0.0442880272863188
  0.1085302074273617  0.8911191759757138  0.9428922101865037
  0.2199694511501193  0.7765866935818918  0.0546339484021697
  0.4405538491167874  0.2210704804548223  0.9462895168696951
  0.5525698198184982  0.1039177495500949  0.0494500391287379
  0.4444524182212096  0.5534121435978798  0.9562530400517694
  0.5527184099653881  0.4407296910663642  0.0428210619268155
  0.4560993723568743  0.9024996539321332  0.9480503326531600
  0.5659189893746749  0.7922229940882495  0.0570506299583521
  0.7718513982895308  0.2163636449658327  0.9471587868667054
  0.8821930151797556  0.1025389823151824  0.0540308672479548
  0.7740193202587998  0.5526977421556418  0.9545663076946491
  0.8825116568170057  0.4419303208560909  0.0426901175383747
  0.7810335139567592  0.8987666530019701  0.9453597059471648
  0.8922414209569273  0.7827433218658871  0.0576912680441867
 
  0.00000000E+00  0.00000000E+00  0.00000000E+00
  0.00000000E+00  0.00000000E+00  0.00000000E+00
  0.00000000E+00  0.00000000E+00  0.00000000E+00
  0.00000000E+00  0.00000000E+00  0.00000000E+00
  0.00000000E+00  0.00000000E+00  0.00000000E+00
  0.00000000E+00  0.00000000E+00  0.00000000E+00
  0.00000000E+00  0.00000000E+00  0.00000000E+00
  0.00000000E+00  0.00000000E+00  0.00000000E+00
  0.00000000E+00  0.00000000E+00  0.00000000E+00
  0.00000000E+00  0.00000000E+00  0.00000000E+00
  0.00000000E+00  0.00000000E+00  0.00000000E+00
  0.00000000E+00  0.00000000E+00  0.00000000E+00
  0.00000000E+00  0.00000000E+00  0.00000000E+00
  0.00000000E+00  0.00000000E+00  0.00000000E+00
  0.00000000E+00  0.00000000E+00  0.00000000E+00
  0.00000000E+00  0.00000000E+00  0.00000000E+00
  0.00000000E+00  0.00000000E+00  0.00000000E+00
  0.00000000E+00  0.00000000E+00  0.00000000E+00
  0.00000000E+00  0.00000000E+00  0.00000000E+00
  0.00000000E+00  0.00000000E+00  0.00000000E+00
  0.00000000E+00  0.00000000E+00  0.00000000E+00
  0.00000000E+00  0.00000000E+00  0.00000000E+00
  0.00000000E+00  0.00000000E+00  0.00000000E+00
  0.00000000E+00  0.00000000E+00  0.00000000E+00
  0.00000000E+00  0.00000000E+00  0.00000000E+00
  0.00000000E+00  0.00000000E+00  0.00000000E+00
  0.00000000E+00  0.00000000E+00  0.00000000E+00
