crystal structure from VMoWS2 with Hexag
   1.00000000000000     
     8.3816541885420612    4.8039882327012409    0.0000000000000000
    -8.3931518750609513    4.8241833073182034    0.0000000000000000
     0.0000000000000000    0.0000000000000000   30.0000000000000000
   V    Mo   W    S 
     3     3     3    18
Direct
  0.6903947478410547 -0.0151741342675655  0.0029544620862693
  0.3132762635071588  0.6829317335750885 -0.0017037280838086
  0.9829966799019707  0.3550642507716798 -0.0017645051493804
 -0.0079971830894398  0.6700522887878565 -0.0005867162821412
  0.0083381804135451 -0.0181397073913592  0.0008330059281835
  0.6780895094109056  0.3659311441321937 -0.0008263627935189
  0.3052592993099902 -0.0101917185023972 -0.0002908969908951
  0.3348509732538977  0.3007135708676890  0.0017520810903157
  0.6967259800888863  0.6737642889529312  0.0001618502418413
  0.1072141466677914  0.2257756358959147  0.9552305648706623
  0.2207899409843350  0.1036908112170507  0.0575869374592439
  0.1079320100242427  0.5552225574951076  0.9473822081296898
  0.2166573358611079  0.4432492010215555  0.0433602883489891
  0.1095903492257387  0.8844074213294076  0.9431420210705870
  0.2200261827095013  0.7769114118680908  0.0531468168143258
  0.4452950316547997  0.2160158546920920  0.9467894842732834
  0.5602352375905920  0.1086294617272680  0.0406280580955776
  0.4410864706773230  0.5550630243534976  0.9590309806852995
  0.5545803138829275  0.4495761467450294  0.0533573828566113
  0.4479357600372326  0.8894662347452180  0.9519267189333674
  0.5508845876458351  0.7728692033393958  0.0473882176818302
  0.7739961397675125  0.2173924235568049  0.9521032013910878
  0.8975983243257220  0.1188705489832909  0.0482438065775542
  0.7809753568922069  0.5617066239501870  0.9425591563607286
  0.8875382402657367  0.4472200636640010  0.0529447323247989
  0.7828794660705026  0.8899131449644958  0.9474753221304376
  0.8910651085159063  0.7772829670030336  0.0571748111490188
 
  0.00000000E+00  0.00000000E+00  0.00000000E+00
  0.00000000E+00  0.00000000E+00  0.00000000E+00
  0.00000000E+00  0.00000000E+00  0.00000000E+00
  0.00000000E+00  0.00000000E+00  0.00000000E+00
  0.00000000E+00  0.00000000E+00  0.00000000E+00
  0.00000000E+00  0.00000000E+00  0.00000000E+00
  0.00000000E+00  0.00000000E+00  0.00000000E+00
  0.00000000E+00  0.00000000E+00  0.00000000E+00
  0.00000000E+00  0.00000000E+00  0.00000000E+00
  0.00000000E+00  0.00000000E+00  0.00000000E+00
  0.00000000E+00  0.00000000E+00  0.00000000E+00
  0.00000000E+00  0.00000000E+00  0.00000000E+00
  0.00000000E+00  0.00000000E+00  0.00000000E+00
  0.00000000E+00  0.00000000E+00  0.00000000E+00
  0.00000000E+00  0.00000000E+00  0.00000000E+00
  0.00000000E+00  0.00000000E+00  0.00000000E+00
  0.00000000E+00  0.00000000E+00  0.00000000E+00
  0.00000000E+00  0.00000000E+00  0.00000000E+00
  0.00000000E+00  0.00000000E+00  0.00000000E+00
  0.00000000E+00  0.00000000E+00  0.00000000E+00
  0.00000000E+00  0.00000000E+00  0.00000000E+00
  0.00000000E+00  0.00000000E+00  0.00000000E+00
  0.00000000E+00  0.00000000E+00  0.00000000E+00
  0.00000000E+00  0.00000000E+00  0.00000000E+00
  0.00000000E+00  0.00000000E+00  0.00000000E+00
  0.00000000E+00  0.00000000E+00  0.00000000E+00
  0.00000000E+00  0.00000000E+00  0.00000000E+00
