crystal structure from VMoWS2 with Hexag
   1.00000000000000     
     8.3398961216757428    4.8494333282525339    0.0000000000000000
    -8.3296018234674580    4.8311376985275007    0.0000000000000000
     0.0000000000000000    0.0000000000000000   30.0000000000000000
   V    Mo   W    S 
     3     3     3    18
Direct
  1.0200237786309432  0.3259231666303919 -0.0002958913266817
  0.7066570685846012  0.0148662098810147 -0.0026357501128915
  0.6271574624496173  0.6450422105176992  0.0022729361661507
  0.0367665084133195  0.6995480713374970 -0.0025645500041349
  0.0260004096677533  0.0130332654629750 -0.0007121800168285
  0.3291172187838657  0.3270851110233628  0.0003886340996018
  0.3153865066543899  0.0108892407611156 -0.0000203908273941
  0.3116785627071380  0.6388871499550907  0.0008526358765307
  0.6278867709948522  0.3203864657203511  0.0016168470621773
  0.1090739069838375  0.2234234597833724  0.9451934647161984
  0.2237646679180715  0.1144282938251618  0.0570193118480251
  0.1065581437830439  0.5470295279305479  0.9470994056465676
  0.2137222268750478  0.4381522851579865  0.0551091532924291
  0.1184125427514895  0.8972863434248958  0.9418583225065400
  0.2315836248050886  0.7859778841641116  0.0529807052235153
  0.4369634060472650  0.2204508333505545  0.9442414284137469
  0.5570053854156535  0.1044959257497013  0.0489011572693637
  0.4397748081004017  0.5538126106819198  0.9476442330125797
  0.5488583482575460  0.4459414371494045  0.0551490078167152
  0.4528651756126748  0.8928218532476595  0.9590659210609517
  0.5570319675077254  0.7808345234646935  0.0488241341591039
  0.7829391500951900  0.2273701212265832  0.9530062107689676
  0.8979465111866675  0.1170635672988801  0.0513081256465608
  0.7743127698861877  0.5585139256572333  0.9556678185433409
  0.8874587792597076  0.4446169862583572  0.0408124194684247
  0.7775906294538144  0.8776931388658210  0.9522685886077433
  0.8816781226110905  0.7726408449511876  0.0449482002827040
 
  0.00000000E+00  0.00000000E+00  0.00000000E+00
  0.00000000E+00  0.00000000E+00  0.00000000E+00
  0.00000000E+00  0.00000000E+00  0.00000000E+00
  0.00000000E+00  0.00000000E+00  0.00000000E+00
  0.00000000E+00  0.00000000E+00  0.00000000E+00
  0.00000000E+00  0.00000000E+00  0.00000000E+00
  0.00000000E+00  0.00000000E+00  0.00000000E+00
  0.00000000E+00  0.00000000E+00  0.00000000E+00
  0.00000000E+00  0.00000000E+00  0.00000000E+00
  0.00000000E+00  0.00000000E+00  0.00000000E+00
  0.00000000E+00  0.00000000E+00  0.00000000E+00
  0.00000000E+00  0.00000000E+00  0.00000000E+00
  0.00000000E+00  0.00000000E+00  0.00000000E+00
  0.00000000E+00  0.00000000E+00  0.00000000E+00
  0.00000000E+00  0.00000000E+00  0.00000000E+00
  0.00000000E+00  0.00000000E+00  0.00000000E+00
  0.00000000E+00  0.00000000E+00  0.00000000E+00
  0.00000000E+00  0.00000000E+00  0.00000000E+00
  0.00000000E+00  0.00000000E+00  0.00000000E+00
  0.00000000E+00  0.00000000E+00  0.00000000E+00
  0.00000000E+00  0.00000000E+00  0.00000000E+00
  0.00000000E+00  0.00000000E+00  0.00000000E+00
  0.00000000E+00  0.00000000E+00  0.00000000E+00
  0.00000000E+00  0.00000000E+00  0.00000000E+00
  0.00000000E+00  0.00000000E+00  0.00000000E+00
  0.00000000E+00  0.00000000E+00  0.00000000E+00
  0.00000000E+00  0.00000000E+00  0.00000000E+00
