crystal structure from VMoWS2 with Hexag
   1.00000000000000     
     8.3561437477892326    4.7987433121790772    0.0000000000000000
    -8.3698713545866585    4.8225232650638574    0.0000000000000000
     0.0000000000000000    0.0000000000000000   30.0000000000000000
   V    Mo   W    S 
     3     3     3    18
Direct
  0.3235207045630224  0.6844424681919865 -0.0002998092030619
  0.6968207052704609  0.7009487659838820  0.0010377150037515
  0.9821189198361719  0.3509410236439028 -0.0015178909751760
  0.0195812625371120 -0.0153748205680990  0.0002861303090244
  0.3305938476450996 -0.0014572402229946  0.0001288432178664
  0.0173015153516468  0.6933272284774044  0.0005584592903279
  0.3315406393750514  0.2979066052727247 -0.0001437921536529
  0.6528391598511785  0.0091983559875479  0.0001680946222448
  0.6467622675980792  0.2978038740903959 -0.0003740154289174
  0.1082806828592141  0.2233258849388048  0.9520978826249166
  0.2223275523979880  0.1034501312594280  0.0568277601149543
  0.1121374363198479  0.5591610884852527  0.9485159798890489
  0.2185084560181521  0.4417647587770786  0.0426123979160159
  0.1182827691038977  0.8889842726910225  0.9433820261795310
  0.2232342724476872  0.7740309478903039  0.0547661585439027
  0.4441258268220009  0.2141902611127744  0.9433973408537872
  0.5488285847116324  0.1033640882372776  0.0565858719926132
  0.4468527701221844  0.5565557475884069  0.9589949138181729
  0.5576721247299050  0.4462354452419203  0.0477183450607647
  0.4435050011130057  0.8823068569780932  0.9465018523990576
  0.5521152164962768  0.7756718269977319  0.0489726843006861
  0.7787304056592000  0.2226541024639203  0.9453127978008833
  0.8957637018163912  0.1168345387859871  0.0434452551511743
  0.7713342668491391  0.5525525865489477  0.9558385738202713
  0.8814308263436016  0.4449574704755493  0.0494560792064095
  0.7845770902158545  0.8953332869765174  0.9501748689481833
  0.8894284473831807  0.7791048971718085  0.0555553758972148
 
  0.00000000E+00  0.00000000E+00  0.00000000E+00
  0.00000000E+00  0.00000000E+00  0.00000000E+00
  0.00000000E+00  0.00000000E+00  0.00000000E+00
  0.00000000E+00  0.00000000E+00  0.00000000E+00
  0.00000000E+00  0.00000000E+00  0.00000000E+00
  0.00000000E+00  0.00000000E+00  0.00000000E+00
  0.00000000E+00  0.00000000E+00  0.00000000E+00
  0.00000000E+00  0.00000000E+00  0.00000000E+00
  0.00000000E+00  0.00000000E+00  0.00000000E+00
  0.00000000E+00  0.00000000E+00  0.00000000E+00
  0.00000000E+00  0.00000000E+00  0.00000000E+00
  0.00000000E+00  0.00000000E+00  0.00000000E+00
  0.00000000E+00  0.00000000E+00  0.00000000E+00
  0.00000000E+00  0.00000000E+00  0.00000000E+00
  0.00000000E+00  0.00000000E+00  0.00000000E+00
  0.00000000E+00  0.00000000E+00  0.00000000E+00
  0.00000000E+00  0.00000000E+00  0.00000000E+00
  0.00000000E+00  0.00000000E+00  0.00000000E+00
  0.00000000E+00  0.00000000E+00  0.00000000E+00
  0.00000000E+00  0.00000000E+00  0.00000000E+00
  0.00000000E+00  0.00000000E+00  0.00000000E+00
  0.00000000E+00  0.00000000E+00  0.00000000E+00
  0.00000000E+00  0.00000000E+00  0.00000000E+00
  0.00000000E+00  0.00000000E+00  0.00000000E+00
  0.00000000E+00  0.00000000E+00  0.00000000E+00
  0.00000000E+00  0.00000000E+00  0.00000000E+00
  0.00000000E+00  0.00000000E+00  0.00000000E+00
