crystal structure from VMoWS2 with Hexag
   1.00000000000000     
     8.3310969006461946    4.8252347671962381    0.0000000000000000
    -8.3171734853255987    4.8011867337186516    0.0000000000000000
     0.0000000000000000    0.0000000000000000   30.0000000000000000
   V    Mo   W    S 
     3     3     3    18
Direct
  0.0363889820261067  0.0196308296882649 -0.0015206826360156
  1.0390483464524021  0.3476355204083358 -0.0019391121399701
  0.3377628687177151  0.6831025812954485 -0.0004336542836011
  0.3381288799101500  0.0068656915413802 -0.0002689859292095
  0.3392293382020641  0.3188606259888601 -0.0003337826524980
  0.6281179935278824 -0.0180180241254260  0.0022864117859190
  0.0373839996465156  0.6888862033624078 -0.0014237339045896
  0.6309214859430119  0.3032535009105933  0.0011430581026712
  0.6256410943138254  0.6586432394887849  0.0022597793208558
  0.1124374613237431  0.2199341326956311  0.9461612066946860
  0.2206731680541885  0.1091725849655404  0.0541014231792019
  0.1176107773553270  0.5564399901738635  0.9467731437307115
  0.2287609491891620  0.4484732997277519  0.0493354408602067
  0.1113146652013517  0.8942810259290431  0.9450732538167088
  0.2304739212564693  0.7794689279970786  0.0540403790466321
  0.4423740505687442  0.2173284451479995  0.9429471008511784
  0.5500705384719969  0.1089980971205571  0.0577813498941945
  0.4313336597676893  0.5535806556806414  0.9480581989956468
  0.5560506893164173  0.4425084377374681  0.0549230668960439
  0.4346404444447999  0.8822609891020692  0.9455123439749104
  0.5409581635708628  0.7730555604744651  0.0570965594151687
  0.7805329818760157  0.2211659782173619  0.9546593840734536
  0.8926728897028854  0.1128126009391479  0.0426523334053512
  0.7751176221309436  0.5557194069394092  0.9578358836076746
  0.8913207094437964  0.4405091580352263  0.0426677116337360
  0.7794575465123128  0.8903953432931319  0.9563454543259403
  0.8897912265106032  0.7832496507425371  0.0442663671349851
 
  0.00000000E+00  0.00000000E+00  0.00000000E+00
  0.00000000E+00  0.00000000E+00  0.00000000E+00
  0.00000000E+00  0.00000000E+00  0.00000000E+00
  0.00000000E+00  0.00000000E+00  0.00000000E+00
  0.00000000E+00  0.00000000E+00  0.00000000E+00
  0.00000000E+00  0.00000000E+00  0.00000000E+00
  0.00000000E+00  0.00000000E+00  0.00000000E+00
  0.00000000E+00  0.00000000E+00  0.00000000E+00
  0.00000000E+00  0.00000000E+00  0.00000000E+00
  0.00000000E+00  0.00000000E+00  0.00000000E+00
  0.00000000E+00  0.00000000E+00  0.00000000E+00
  0.00000000E+00  0.00000000E+00  0.00000000E+00
  0.00000000E+00  0.00000000E+00  0.00000000E+00
  0.00000000E+00  0.00000000E+00  0.00000000E+00
  0.00000000E+00  0.00000000E+00  0.00000000E+00
  0.00000000E+00  0.00000000E+00  0.00000000E+00
  0.00000000E+00  0.00000000E+00  0.00000000E+00
  0.00000000E+00  0.00000000E+00  0.00000000E+00
  0.00000000E+00  0.00000000E+00  0.00000000E+00
  0.00000000E+00  0.00000000E+00  0.00000000E+00
  0.00000000E+00  0.00000000E+00  0.00000000E+00
  0.00000000E+00  0.00000000E+00  0.00000000E+00
  0.00000000E+00  0.00000000E+00  0.00000000E+00
  0.00000000E+00  0.00000000E+00  0.00000000E+00
  0.00000000E+00  0.00000000E+00  0.00000000E+00
  0.00000000E+00  0.00000000E+00  0.00000000E+00
  0.00000000E+00  0.00000000E+00  0.00000000E+00
