crystal structure from VMoWS2 with Hexag
   1.00000000000000     
     8.3877263149262262    4.8396341730309542    0.0000000000000000
    -8.3712848614454014    4.8112863879717338    0.0000000000000000
     0.0000000000000000    0.0000000000000000   30.0000000000000000
   V    Mo   W    S 
     3     3     3    18
Direct
  0.3151048664408989  0.3515685656545109 -0.0006291610817736
  0.6384800523217893 -0.0104304075335088  0.0007461646853198
  0.6451036693924996  0.6669102631050435 -0.0003187464784214
  1.0110930473276496  0.3656919386148371  0.0002451251479138
  0.3231009301475457  0.6636353438947353  0.0000586132889348
  0.0171394607465147  0.6648114809004109  0.0000324475444585
  0.0166250469284681 -0.0221358768134769  0.0016469276892135
  0.3143865828486251 -0.0334336137096703 -0.0000380138876912
  0.7045307949051849  0.3545577228485454 -0.0014874951514515
  0.1093833411536489  0.2204994740412723  0.9517180204940009
  0.2311188849971391  0.1150325083386759  0.0498088353047105
  0.1151585658868387  0.5591802487125963  0.9431761714836953
  0.2220193993286514  0.4438967976135084  0.0543883545364706
  0.1134538279284931  0.8831994855019553  0.9439424434113810
  0.2222912551980520  0.7730992980405923  0.0569262918295163
  0.4446964755107644  0.2246114687498368  0.9594084767748819
  0.5566692668703369  0.1129273292274024  0.0487557121558190
  0.4415666764121180  0.5528343811618912  0.9485661349645540
  0.5510422577857077  0.4450161262420261  0.0461227096184682
  0.4479400407447599  0.8890153260663686  0.9463512051753912
  0.5575263990813096  0.7818214404464241  0.0503249332288666
  0.7815640865580079  0.2195269683771025  0.9492556327701243
  0.8893727488316142  0.1074998686962404  0.0417168779709190
  0.7805797231999226  0.5650155791162997  0.9497519728281487
  0.8935699040896917  0.4493021893890168  0.0564081627818936
  0.7750047608584225  0.8884199108446830  0.9533400793461245
  0.8796923879423252  0.7661406359502569  0.0497820227685232
 
  0.00000000E+00  0.00000000E+00  0.00000000E+00
  0.00000000E+00  0.00000000E+00  0.00000000E+00
  0.00000000E+00  0.00000000E+00  0.00000000E+00
  0.00000000E+00  0.00000000E+00  0.00000000E+00
  0.00000000E+00  0.00000000E+00  0.00000000E+00
  0.00000000E+00  0.00000000E+00  0.00000000E+00
  0.00000000E+00  0.00000000E+00  0.00000000E+00
  0.00000000E+00  0.00000000E+00  0.00000000E+00
  0.00000000E+00  0.00000000E+00  0.00000000E+00
  0.00000000E+00  0.00000000E+00  0.00000000E+00
  0.00000000E+00  0.00000000E+00  0.00000000E+00
  0.00000000E+00  0.00000000E+00  0.00000000E+00
  0.00000000E+00  0.00000000E+00  0.00000000E+00
  0.00000000E+00  0.00000000E+00  0.00000000E+00
  0.00000000E+00  0.00000000E+00  0.00000000E+00
  0.00000000E+00  0.00000000E+00  0.00000000E+00
  0.00000000E+00  0.00000000E+00  0.00000000E+00
  0.00000000E+00  0.00000000E+00  0.00000000E+00
  0.00000000E+00  0.00000000E+00  0.00000000E+00
  0.00000000E+00  0.00000000E+00  0.00000000E+00
  0.00000000E+00  0.00000000E+00  0.00000000E+00
  0.00000000E+00  0.00000000E+00  0.00000000E+00
  0.00000000E+00  0.00000000E+00  0.00000000E+00
  0.00000000E+00  0.00000000E+00  0.00000000E+00
  0.00000000E+00  0.00000000E+00  0.00000000E+00
  0.00000000E+00  0.00000000E+00  0.00000000E+00
  0.00000000E+00  0.00000000E+00  0.00000000E+00
