crystal structure from VMoWS2 with Hexag
   1.00000000000000     
     8.3801954308097191    4.8323185111393725    0.0000000000000000
    -8.3812027084436238    4.8338299138266372    0.0000000000000000
     0.0000000000000000    0.0000000000000000   30.0000000000000000
   V    Mo   W    S 
     3     3     3    18
Direct
  0.6627643042382477  0.3476923707689957 -0.0002830831271015
  1.0242418195617784  0.3356569521250172 -0.0020258057296584
  0.3525415342874974  0.3644723730072879  0.0002733363112701
  0.6704533402024204  0.6748102983986121  0.0001456046481253
  0.3617326471763529  0.6764873116683562 -0.0002062472611608
  0.6505015175016505 -0.0285611406489843  0.0001068701100126
 -0.0365116248603279 -0.0186555136131468  0.0007889430407970
 -0.0303458763816985  0.6743019823379165  0.0002126696445685
  0.3585972576893665 -0.0148753904064554  0.0003444360418183
  0.1174636555381371  0.2236875744184227  0.9515648908457541
  0.2238114316362550  0.1098490686657084  0.0400859987931518
  0.1072520096216220  0.5605975209293181  0.9554336296753366
  0.2258300908814348  0.4415330155151248  0.0509563723487357
  0.1090493456451777  0.8927858210052398  0.9509289699683818
  0.2159798243040491  0.7684180925965782  0.0486080558756429
  0.4450046606576136  0.2225282811142470  0.9524675031635111
  0.5628485761363545  0.1140216653368561  0.0508053591266349
  0.4452105361507315  0.5516636586901403  0.9455254027634273
  0.5523416623807975  0.4414643101023670  0.0518292476069923
  0.4469580420723054  0.8830291134422313  0.9430282998586760
  0.5565453743262103  0.7734748117434217  0.0569875276396885
  0.7815032199739076  0.2247693562464531  0.9571717541815025
  0.8877694871397571  0.1192376337182539  0.0503239957763566
  0.7684964152567627  0.5492297245901364  0.9467704304592893
  0.8847320195462315  0.4444007342278058  0.0475353062043784
  0.7715954241712834  0.8847567758070398  0.9436106417554955
  0.8818477585830652  0.7814380516906357  0.0570097894783584
 
  0.00000000E+00  0.00000000E+00  0.00000000E+00
  0.00000000E+00  0.00000000E+00  0.00000000E+00
  0.00000000E+00  0.00000000E+00  0.00000000E+00
  0.00000000E+00  0.00000000E+00  0.00000000E+00
  0.00000000E+00  0.00000000E+00  0.00000000E+00
  0.00000000E+00  0.00000000E+00  0.00000000E+00
  0.00000000E+00  0.00000000E+00  0.00000000E+00
  0.00000000E+00  0.00000000E+00  0.00000000E+00
  0.00000000E+00  0.00000000E+00  0.00000000E+00
  0.00000000E+00  0.00000000E+00  0.00000000E+00
  0.00000000E+00  0.00000000E+00  0.00000000E+00
  0.00000000E+00  0.00000000E+00  0.00000000E+00
  0.00000000E+00  0.00000000E+00  0.00000000E+00
  0.00000000E+00  0.00000000E+00  0.00000000E+00
  0.00000000E+00  0.00000000E+00  0.00000000E+00
  0.00000000E+00  0.00000000E+00  0.00000000E+00
  0.00000000E+00  0.00000000E+00  0.00000000E+00
  0.00000000E+00  0.00000000E+00  0.00000000E+00
  0.00000000E+00  0.00000000E+00  0.00000000E+00
  0.00000000E+00  0.00000000E+00  0.00000000E+00
  0.00000000E+00  0.00000000E+00  0.00000000E+00
  0.00000000E+00  0.00000000E+00  0.00000000E+00
  0.00000000E+00  0.00000000E+00  0.00000000E+00
  0.00000000E+00  0.00000000E+00  0.00000000E+00
  0.00000000E+00  0.00000000E+00  0.00000000E+00
  0.00000000E+00  0.00000000E+00  0.00000000E+00
  0.00000000E+00  0.00000000E+00  0.00000000E+00
