crystal structure from VMoWS2 with Hexag
   1.00000000000000     
     8.3399646569426000    4.8125555458557852    0.0000000000000000
    -8.3636943358502815    4.8539437074250857    0.0000000000000000
     0.0000000000000000    0.0000000000000000   30.0000000000000000
   V    Mo   W    S 
     3     3     3    18
Direct
  0.3482375922317926 -0.0071063339753390  0.0000731924710158
  0.3254126802063703  0.3278003520039316  0.0011357747651030
  0.6521797827855907  0.3049588505688355 -0.0010342152860264
  0.3260483759799910  0.6639190250107685 -0.0000467107853457
  0.6569800378464380 -0.0210218172813493  0.0001042254955271
 -0.0353613006546329 -0.0119927785613295 -0.0003220935397099
  1.0241946758103291  0.3644431767949086  0.0000334064392025
  0.0292534623255395  0.6692336753681464 -0.0002612878477161
  0.6653179441915618  0.6955292933327255  0.0001489320597606
  0.1145592051293166  0.2270192466046492  0.9498581554191028
  0.2171264190541163  0.1040898024844903  0.0450296904983108
  0.1181172181032706  0.5610308488696265  0.9432682909618089
  0.2294511007913624  0.4431539348939446  0.0531813413436086
  0.1171791858342583  0.8960768875954042  0.9519796597661755
  0.2310258603727402  0.7855656096977393  0.0542036277049483
  0.4423678032367740  0.2160069051536921  0.9515115043526061
  0.5519381630044564  0.1102806170961503  0.0519585662416402
  0.4445977286164481  0.5489453777475642  0.9497182122605106
  0.5563533236279942  0.4441796546682935  0.0450146795092443
  0.4408784885147766  0.8892792653556779  0.9467504203398729
  0.5510951005130010  0.7765075038684993  0.0560518309461683
  0.7820104400259678  0.2245771444489745  0.9515760493081054
  0.8862837648347860  0.1211575579442458  0.0498879486569431
  0.7771813153484458  0.5541704308252997  0.9570199268281303
  0.8897989434061500  0.4481002046904408  0.0505649505692708
  0.7679255218786392  0.8876950963979489  0.9423193625297697
  0.8880616204215293  0.7746149218736685  0.0502744581919757
 
  0.00000000E+00  0.00000000E+00  0.00000000E+00
  0.00000000E+00  0.00000000E+00  0.00000000E+00
  0.00000000E+00  0.00000000E+00  0.00000000E+00
  0.00000000E+00  0.00000000E+00  0.00000000E+00
  0.00000000E+00  0.00000000E+00  0.00000000E+00
  0.00000000E+00  0.00000000E+00  0.00000000E+00
  0.00000000E+00  0.00000000E+00  0.00000000E+00
  0.00000000E+00  0.00000000E+00  0.00000000E+00
  0.00000000E+00  0.00000000E+00  0.00000000E+00
  0.00000000E+00  0.00000000E+00  0.00000000E+00
  0.00000000E+00  0.00000000E+00  0.00000000E+00
  0.00000000E+00  0.00000000E+00  0.00000000E+00
  0.00000000E+00  0.00000000E+00  0.00000000E+00
  0.00000000E+00  0.00000000E+00  0.00000000E+00
  0.00000000E+00  0.00000000E+00  0.00000000E+00
  0.00000000E+00  0.00000000E+00  0.00000000E+00
  0.00000000E+00  0.00000000E+00  0.00000000E+00
  0.00000000E+00  0.00000000E+00  0.00000000E+00
  0.00000000E+00  0.00000000E+00  0.00000000E+00
  0.00000000E+00  0.00000000E+00  0.00000000E+00
  0.00000000E+00  0.00000000E+00  0.00000000E+00
  0.00000000E+00  0.00000000E+00  0.00000000E+00
  0.00000000E+00  0.00000000E+00  0.00000000E+00
  0.00000000E+00  0.00000000E+00  0.00000000E+00
  0.00000000E+00  0.00000000E+00  0.00000000E+00
  0.00000000E+00  0.00000000E+00  0.00000000E+00
  0.00000000E+00  0.00000000E+00  0.00000000E+00
