crystal structure from VMoWS2 with Hexag
   1.00000000000000     
     8.3662411187903789    4.8039786005982004    0.0000000000000000
    -8.3892685940001233    4.8438442679950899    0.0000000000000000
     0.0000000000000000    0.0000000000000000   30.0000000000000000
   V    Mo   W    S 
     3     3     3    18
Direct
  0.6989888026200726  0.0136996720745153 -0.0002964913467931
  1.0156051608145666  0.3411556496318361  0.0003110313820791
  0.6988756385262909  0.3518695725272544 -0.0002738448087039
 -0.0142270797267433 -0.0299067087036182  0.0005820059618322
 -0.0146760452942787  0.6822565022802790  0.0005494560914345
  0.6786700636210208  0.6726857567622332  0.0004708988057292
  0.2958039734984889 -0.0183641545252576 -0.0005687576734344
  0.3286168273890899  0.3549845305327419 -0.0008092071726067
  0.3294627160870087  0.6400852960523574 -0.0007575646993480
  0.1056776010632872  0.2179572843352831  0.9512737248129332
  0.2172770797302462  0.1116983940777720  0.0508363676908987
  0.1060403505045469  0.5546783919266824  0.9513980268534806
  0.2177310807067920  0.4420900287428310  0.0557532849719439
  0.0994507818181255  0.8829824081756761  0.9429420099930484
  0.2172978564855856  0.7721123566312628  0.0506430915127424
  0.4490324598386830  0.2244921625279792  0.9546762669801316
  0.5542186484436405  0.1103858516253077  0.0420122040895880
  0.4492933079291736  0.5576883085507334  0.9452197944712064
  0.5564126522526980  0.4374243129057406  0.0488188519484391
  0.4490541866817391  0.8910110234144865  0.9547736595122476
  0.5564928788397590  0.7855716200499163  0.0489005892572206
  0.7882387985906048  0.2274061546130525  0.9509071260673232
  0.8927543593484880  0.1140298097449483  0.0508546298654727
  0.7739582222277790  0.5511925496508521  0.9466293108557121
  0.8928781598530904  0.4455671051159366  0.0508623232646459
  0.7740212000096505  0.8894121610437672  0.9466698096763603
  0.8812647715775678  0.7740484137130003  0.0576213008364116
 
  0.00000000E+00  0.00000000E+00  0.00000000E+00
  0.00000000E+00  0.00000000E+00  0.00000000E+00
  0.00000000E+00  0.00000000E+00  0.00000000E+00
  0.00000000E+00  0.00000000E+00  0.00000000E+00
  0.00000000E+00  0.00000000E+00  0.00000000E+00
  0.00000000E+00  0.00000000E+00  0.00000000E+00
  0.00000000E+00  0.00000000E+00  0.00000000E+00
  0.00000000E+00  0.00000000E+00  0.00000000E+00
  0.00000000E+00  0.00000000E+00  0.00000000E+00
  0.00000000E+00  0.00000000E+00  0.00000000E+00
  0.00000000E+00  0.00000000E+00  0.00000000E+00
  0.00000000E+00  0.00000000E+00  0.00000000E+00
  0.00000000E+00  0.00000000E+00  0.00000000E+00
  0.00000000E+00  0.00000000E+00  0.00000000E+00
  0.00000000E+00  0.00000000E+00  0.00000000E+00
  0.00000000E+00  0.00000000E+00  0.00000000E+00
  0.00000000E+00  0.00000000E+00  0.00000000E+00
  0.00000000E+00  0.00000000E+00  0.00000000E+00
  0.00000000E+00  0.00000000E+00  0.00000000E+00
  0.00000000E+00  0.00000000E+00  0.00000000E+00
  0.00000000E+00  0.00000000E+00  0.00000000E+00
  0.00000000E+00  0.00000000E+00  0.00000000E+00
  0.00000000E+00  0.00000000E+00  0.00000000E+00
  0.00000000E+00  0.00000000E+00  0.00000000E+00
  0.00000000E+00  0.00000000E+00  0.00000000E+00
  0.00000000E+00  0.00000000E+00  0.00000000E+00
  0.00000000E+00  0.00000000E+00  0.00000000E+00
