crystal structure from VMoWS2 with Hexag
   1.00000000000000     
     8.2792426589467158    4.7789732656386317    0.0000000000000000
    -8.3015306621762566    4.8175463408010533    0.0000000000000000
     0.0000000000000000    0.0000000000000000   30.0000000000000000
   V    Mo   W    S 
     3     3     3    18
Direct
  0.0030088003831202  0.0051720552258409  0.0000556961918560
  0.6693233885373866  0.6702240280558477 -0.0001881531020728
  0.3359963286335806  0.6687707299553826  0.0002587456720436
  0.3309836191891595  0.3197105845063033  0.0001520230158053
  0.6625358844914423  0.0183588077384412  0.0001384911350613
  0.6492584346331495  0.3103486739891483 -0.0001247546718623
  0.9954511419440094  0.3199762718425539  0.0000376930422757
 -0.0020730364645837  0.6678601488858136 -0.0004907319920750
  0.3547461987184781  0.0186791022917709  0.0003135123267461
  0.1065743728628596  0.2135719887716540  0.9474997926769425
  0.2170528666764439  0.1045165259174604  0.0524822369511877
  0.1170964845542457  0.5556235071560540  0.9497892260244144
  0.2245376771799613  0.4478746136468931  0.0497821551068563
  0.1135115348556248  0.8936266616202142  0.9503421876682704
  0.2263898035965616  0.7785749165433977  0.0498369339504895
  0.4430988105901276  0.2210902242370793  0.9442787675919875
  0.5540872695950124  0.1120231783378149  0.0574145747427914
  0.4468107886708633  0.5597705009752136  0.9509738211602884
  0.5583753674767595  0.4488143289160150  0.0503833599612357
  0.4425006915118299  0.8872061504607438  0.9480677133910042
  0.5550873608313893  0.7764105344618614  0.0489731980004313
  0.7792497815064952  0.2257179973228115  0.9454504027878080
  0.8897905408589016  0.1062288175585489  0.0520276177805972
  0.7724494909280994  0.5540048997895881  0.9502234728178598
  0.8869088851178039  0.4424035111487312  0.0503972998105661
  0.7782122640035603  0.8905367658646096  0.9518786980347281
  0.8872497025547058  0.7811189282577711  0.0500459191247606
 
  0.00000000E+00  0.00000000E+00  0.00000000E+00
  0.00000000E+00  0.00000000E+00  0.00000000E+00
  0.00000000E+00  0.00000000E+00  0.00000000E+00
  0.00000000E+00  0.00000000E+00  0.00000000E+00
  0.00000000E+00  0.00000000E+00  0.00000000E+00
  0.00000000E+00  0.00000000E+00  0.00000000E+00
  0.00000000E+00  0.00000000E+00  0.00000000E+00
  0.00000000E+00  0.00000000E+00  0.00000000E+00
  0.00000000E+00  0.00000000E+00  0.00000000E+00
  0.00000000E+00  0.00000000E+00  0.00000000E+00
  0.00000000E+00  0.00000000E+00  0.00000000E+00
  0.00000000E+00  0.00000000E+00  0.00000000E+00
  0.00000000E+00  0.00000000E+00  0.00000000E+00
  0.00000000E+00  0.00000000E+00  0.00000000E+00
  0.00000000E+00  0.00000000E+00  0.00000000E+00
  0.00000000E+00  0.00000000E+00  0.00000000E+00
  0.00000000E+00  0.00000000E+00  0.00000000E+00
  0.00000000E+00  0.00000000E+00  0.00000000E+00
  0.00000000E+00  0.00000000E+00  0.00000000E+00
  0.00000000E+00  0.00000000E+00  0.00000000E+00
  0.00000000E+00  0.00000000E+00  0.00000000E+00
  0.00000000E+00  0.00000000E+00  0.00000000E+00
  0.00000000E+00  0.00000000E+00  0.00000000E+00
  0.00000000E+00  0.00000000E+00  0.00000000E+00
  0.00000000E+00  0.00000000E+00  0.00000000E+00
  0.00000000E+00  0.00000000E+00  0.00000000E+00
  0.00000000E+00  0.00000000E+00  0.00000000E+00
