crystal structure from VMoWS2 with Hexag
   1.00000000000000     
     8.4021234441589883    4.8273727474359989    0.0000000000000000
    -8.4064032025242241    4.8344277659150583    0.0000000000000000
     0.0000000000000000    0.0000000000000000   30.0000000000000000
   V    Mo   W    S 
     3     3     3    18
Direct
 -0.0173750865260157  0.6872339479527910 -0.0003845061027081
  0.6624893774019991  0.3633068556072941 -0.0005267622261941
  0.3136904341806928  0.3387710697236746 -0.0009419063740036
 -0.0222808735107269  0.0010805423241358 -0.0002153644095961
  0.6785689906921638  0.6853471865956634  0.0003235978997632
  0.6694475360110868 -0.0213155900548616  0.0003780468796920
  0.9780638863219863  0.2951199836024764 -0.0008364941547831
  0.3545822327494347 -0.0237517223590548  0.0015249358044036
  0.3652420535154235  0.6825095248378412  0.0005418947740449
  0.1107006540565078  0.2216910459370754  0.9461450166772345
  0.2300773073308247  0.1084751379669779  0.0426550031754446
  0.1077005676738340  0.5553313163702311  0.9601800236289981
  0.2166497215012392  0.4382707190704704  0.0495317860593156
  0.1180404386308413  0.8936280795504138  0.9519099012532445
  0.2186818065742708  0.7667397741853957  0.0506035568349819
  0.4442024115671787  0.2229401525236821  0.9536002648244772
  0.5691626570014782  0.1224990447625532  0.0479756944822036
  0.4458592258694477  0.5498289573637233  0.9488002251431922
  0.5464834843230535  0.4433394070775361  0.0487951861138487
  0.4528756376705607  0.8826395085113381  0.9443411375031301
  0.5603058359192971  0.7753832635889122  0.0573100076244025
  0.7672705361387560  0.2179834629856157  0.9506305704263296
  0.8835766630912882  0.1056793828446675  0.0567440115895595
  0.7838951037394472  0.5639332224425162  0.9481229649738016
  0.8874288385404070  0.4504332071962887  0.0450259132463070
  0.7800627424787722  0.8883744401561364  0.9433260778016832
  0.8928122704937342  0.7827425327140848  0.0544391157512105
 
  0.00000000E+00  0.00000000E+00  0.00000000E+00
  0.00000000E+00  0.00000000E+00  0.00000000E+00
  0.00000000E+00  0.00000000E+00  0.00000000E+00
  0.00000000E+00  0.00000000E+00  0.00000000E+00
  0.00000000E+00  0.00000000E+00  0.00000000E+00
  0.00000000E+00  0.00000000E+00  0.00000000E+00
  0.00000000E+00  0.00000000E+00  0.00000000E+00
  0.00000000E+00  0.00000000E+00  0.00000000E+00
  0.00000000E+00  0.00000000E+00  0.00000000E+00
  0.00000000E+00  0.00000000E+00  0.00000000E+00
  0.00000000E+00  0.00000000E+00  0.00000000E+00
  0.00000000E+00  0.00000000E+00  0.00000000E+00
  0.00000000E+00  0.00000000E+00  0.00000000E+00
  0.00000000E+00  0.00000000E+00  0.00000000E+00
  0.00000000E+00  0.00000000E+00  0.00000000E+00
  0.00000000E+00  0.00000000E+00  0.00000000E+00
  0.00000000E+00  0.00000000E+00  0.00000000E+00
  0.00000000E+00  0.00000000E+00  0.00000000E+00
  0.00000000E+00  0.00000000E+00  0.00000000E+00
  0.00000000E+00  0.00000000E+00  0.00000000E+00
  0.00000000E+00  0.00000000E+00  0.00000000E+00
  0.00000000E+00  0.00000000E+00  0.00000000E+00
  0.00000000E+00  0.00000000E+00  0.00000000E+00
  0.00000000E+00  0.00000000E+00  0.00000000E+00
  0.00000000E+00  0.00000000E+00  0.00000000E+00
  0.00000000E+00  0.00000000E+00  0.00000000E+00
  0.00000000E+00  0.00000000E+00  0.00000000E+00
