crystal structure from VMoWS2 with Hexag
   1.00000000000000     
     8.3542113309803572    4.8462328750810428    0.0000000000000000
    -8.3237133711122606    4.7935406068931092    0.0000000000000000
     0.0000000000000000    0.0000000000000000   30.0000000000000000
   V    Mo   W    S 
     3     3     3    18
Direct
  0.6323283529215945  0.6522832513775653  0.0003253902574318
  1.0106142304854184  0.3181561044287974 -0.0003502527253248
  0.6707324230882528  0.3568983084302423  0.0003132456476999
  0.0293912509065902  0.0160241054970458 -0.0005049181734325
  0.3210184457590751  0.3250007503656152  0.0000997574697346
  0.3484233732061933  0.6688456013271544 -0.0005153305072342
  0.0272938048154832  0.6959721994423343 -0.0001869234989005
  0.3086166516349242 -0.0020543153841756  0.0014655606291627
  0.6530227491874118 -0.0301787820223271 -0.0002015629096241
  0.1094089043749219  0.2250595361973545  0.9449449578899171
  0.2261248373704868  0.1168521781205182  0.0567551352166161
  0.1066738019095906  0.5504881933552465  0.9506563003089913
  0.2141543182949761  0.4409496192934039  0.0518843730042850
  0.1154462793597933  0.8965688822777299  0.9429381754141000
  0.2292335499354816  0.7818318189684211  0.0538825645714975
  0.4484357282825730  0.2226501868383135  0.9500704646811092
  0.5579961377168458  0.1153354219598592  0.0467828402085600
  0.4427967316666205  0.5519155103311516  0.9462800096158680
  0.5551486174857857  0.4460157423119837  0.0515784180155855
  0.4412334289504005  0.8920636417334492  0.9492066526914779
  0.5542475042625354  0.7675398710089690  0.0554700071475131
  0.7770652795842653  0.2208932082865110  0.9547838225114398
  0.8906823451667717  0.1099896666848789  0.0499409792336650
  0.7749050931171384  0.5612682125830999  0.9516056442725455
  0.8947957699522419  0.4459753353109533  0.0453007649770330
  0.7769749177252069  0.8766565159400563  0.9513385397322813
  0.8814499262764058  0.7752136888134190  0.0461352835179861
 
  0.00000000E+00  0.00000000E+00  0.00000000E+00
  0.00000000E+00  0.00000000E+00  0.00000000E+00
  0.00000000E+00  0.00000000E+00  0.00000000E+00
  0.00000000E+00  0.00000000E+00  0.00000000E+00
  0.00000000E+00  0.00000000E+00  0.00000000E+00
  0.00000000E+00  0.00000000E+00  0.00000000E+00
  0.00000000E+00  0.00000000E+00  0.00000000E+00
  0.00000000E+00  0.00000000E+00  0.00000000E+00
  0.00000000E+00  0.00000000E+00  0.00000000E+00
  0.00000000E+00  0.00000000E+00  0.00000000E+00
  0.00000000E+00  0.00000000E+00  0.00000000E+00
  0.00000000E+00  0.00000000E+00  0.00000000E+00
  0.00000000E+00  0.00000000E+00  0.00000000E+00
  0.00000000E+00  0.00000000E+00  0.00000000E+00
  0.00000000E+00  0.00000000E+00  0.00000000E+00
  0.00000000E+00  0.00000000E+00  0.00000000E+00
  0.00000000E+00  0.00000000E+00  0.00000000E+00
  0.00000000E+00  0.00000000E+00  0.00000000E+00
  0.00000000E+00  0.00000000E+00  0.00000000E+00
  0.00000000E+00  0.00000000E+00  0.00000000E+00
  0.00000000E+00  0.00000000E+00  0.00000000E+00
  0.00000000E+00  0.00000000E+00  0.00000000E+00
  0.00000000E+00  0.00000000E+00  0.00000000E+00
  0.00000000E+00  0.00000000E+00  0.00000000E+00
  0.00000000E+00  0.00000000E+00  0.00000000E+00
  0.00000000E+00  0.00000000E+00  0.00000000E+00
  0.00000000E+00  0.00000000E+00  0.00000000E+00
