crystal structure from VMoWS2 with Hexag
   1.00000000000000     
     8.3712082713758065    4.8580921162128945    0.0000000000000000
    -8.3385157252486426    4.8017667694230939    0.0000000000000000
     0.0000000000000000    0.0000000000000000   30.0000000000000000
   V    Mo   W    S 
     3     3     3    18
Direct
  0.6298304555678939  0.3113818917910008  0.0019691707045684
  0.6654964041126392 -0.0163654014818052 -0.0029736045084548
  0.6338003218438207  0.6416481992374314  0.0012834388407485
  0.3228469240929510  0.3248721965851433  0.0004868492879137
  0.3160883757155925  0.0151972939914427  0.0008598544542346
  1.0350795061370373  0.3533842978311883 -0.0012618766729269
  0.0234015949489887  0.0338221616444743  0.0002613007088408
  0.0363234173193371  0.6677769011841020 -0.0015162621382567
  0.3236575547427444  0.6433058354291089  0.0002979083691623
  0.1140830251657002  0.2267700893291106  0.9428805890866682
  0.2182566436235650  0.1155394224977858  0.0573414813952448
  0.1221094918684941  0.5588613366739480  0.9419253822124728
  0.2286606119499819  0.4451724870627608  0.0566819629424804
  0.1056271035484465  0.8909288782789423  0.9473623673471976
  0.2340900707161309  0.7816655849230029  0.0526080012541506
  0.4431607002071276  0.2229413872391898  0.9469820739537376
  0.5524448901638682  0.1109558517264433  0.0503230246798786
  0.4464422678289163  0.5533908745650058  0.9465840882642791
  0.5539366895535094  0.4434645881966911  0.0529210680477377
  0.4423629229430475  0.8922019797394929  0.9541722315587120
  0.5605197357557423  0.7797544387184422  0.0504345933851735
  0.7769051613364151  0.2263981162526321  0.9564487373637972
  0.8864340061446002  0.1178035313990412  0.0489420896267055
  0.7760473465572946  0.5531018224895492  0.9564190344770773
  0.8854750999532254  0.4431727270953453  0.0454732480350159
  0.7763671425170809  0.8846271973556534  0.9524878320453448
  0.8887669891228387  0.7764407637224706  0.0406053144784731
 
  0.00000000E+00  0.00000000E+00  0.00000000E+00
  0.00000000E+00  0.00000000E+00  0.00000000E+00
  0.00000000E+00  0.00000000E+00  0.00000000E+00
  0.00000000E+00  0.00000000E+00  0.00000000E+00
  0.00000000E+00  0.00000000E+00  0.00000000E+00
  0.00000000E+00  0.00000000E+00  0.00000000E+00
  0.00000000E+00  0.00000000E+00  0.00000000E+00
  0.00000000E+00  0.00000000E+00  0.00000000E+00
  0.00000000E+00  0.00000000E+00  0.00000000E+00
  0.00000000E+00  0.00000000E+00  0.00000000E+00
  0.00000000E+00  0.00000000E+00  0.00000000E+00
  0.00000000E+00  0.00000000E+00  0.00000000E+00
  0.00000000E+00  0.00000000E+00  0.00000000E+00
  0.00000000E+00  0.00000000E+00  0.00000000E+00
  0.00000000E+00  0.00000000E+00  0.00000000E+00
  0.00000000E+00  0.00000000E+00  0.00000000E+00
  0.00000000E+00  0.00000000E+00  0.00000000E+00
  0.00000000E+00  0.00000000E+00  0.00000000E+00
  0.00000000E+00  0.00000000E+00  0.00000000E+00
  0.00000000E+00  0.00000000E+00  0.00000000E+00
  0.00000000E+00  0.00000000E+00  0.00000000E+00
  0.00000000E+00  0.00000000E+00  0.00000000E+00
  0.00000000E+00  0.00000000E+00  0.00000000E+00
  0.00000000E+00  0.00000000E+00  0.00000000E+00
  0.00000000E+00  0.00000000E+00  0.00000000E+00
  0.00000000E+00  0.00000000E+00  0.00000000E+00
  0.00000000E+00  0.00000000E+00  0.00000000E+00
