crystal structure from VMoWS2 with Hexag
   1.00000000000000     
     8.3598944445492389    4.8500040166478664    0.0000000000000000
    -8.3403371271026643    4.8159087137295726    0.0000000000000000
     0.0000000000000000    0.0000000000000000   30.0000000000000000
   V    Mo   W    S 
     3     3     3    18
Direct
  0.9614892286559594  0.3143024075622288  0.0026252700238465
  0.6467054818458322  0.0032185202391790  0.0000218953546187
  0.0336761325869703  0.0164641755969931 -0.0017911300623712
  0.3503731543263204  0.6985282130345056 -0.0006636554113786
  0.3376640546885584  0.0000627824117803 -0.0004404454032125
  0.6379718786838360  0.3149849113285081  0.0008666113455600
  0.0435483470068778  0.6930473752050648 -0.0017630513200453
  0.3511339754042028  0.3228623976552566 -0.0003117345226058
  0.6289516134709581  0.6372692352460257  0.0025978683655634
  0.1076830338957902  0.2232387703627249  0.9515994074187207
  0.2225595719493366  0.1103469997926237  0.0532469306385385
  0.1130847869894339  0.5502688161198426  0.9498556426726671
  0.2146348836546997  0.4407677628751946  0.0404722892890436
  0.1168189420052209  0.8959688059818531  0.9451232244213724
  0.2330150345971737  0.7851069157180011  0.0554550678951944
  0.4427744791066807  0.2183287754122311  0.9432318118921480
  0.5575242985722901  0.1076034888204503  0.0547574185941657
  0.4368145623015799  0.5498389611203126  0.9471280953369159
  0.5482938238998279  0.4350032021117521  0.0577970700393782
  0.4536519965239446  0.8981246103112124  0.9442935838189901
  0.5611652296014636  0.7852946542208169  0.0531077836160971
  0.7703368849770744  0.2163602545621931  0.9487575360790031
  0.8846789465190499  0.1036872744766436  0.0467191895927601
  0.7846980641609768  0.5598692966287261  0.9558890580150529
  0.8886468362654083  0.4510826104148287  0.0480665320848001
  0.7795276515904411  0.8878464437596921  0.9591112436837728
  0.8907915601570739  0.7787367925089325  0.0442463857413985
 
  0.00000000E+00  0.00000000E+00  0.00000000E+00
  0.00000000E+00  0.00000000E+00  0.00000000E+00
  0.00000000E+00  0.00000000E+00  0.00000000E+00
  0.00000000E+00  0.00000000E+00  0.00000000E+00
  0.00000000E+00  0.00000000E+00  0.00000000E+00
  0.00000000E+00  0.00000000E+00  0.00000000E+00
  0.00000000E+00  0.00000000E+00  0.00000000E+00
  0.00000000E+00  0.00000000E+00  0.00000000E+00
  0.00000000E+00  0.00000000E+00  0.00000000E+00
  0.00000000E+00  0.00000000E+00  0.00000000E+00
  0.00000000E+00  0.00000000E+00  0.00000000E+00
  0.00000000E+00  0.00000000E+00  0.00000000E+00
  0.00000000E+00  0.00000000E+00  0.00000000E+00
  0.00000000E+00  0.00000000E+00  0.00000000E+00
  0.00000000E+00  0.00000000E+00  0.00000000E+00
  0.00000000E+00  0.00000000E+00  0.00000000E+00
  0.00000000E+00  0.00000000E+00  0.00000000E+00
  0.00000000E+00  0.00000000E+00  0.00000000E+00
  0.00000000E+00  0.00000000E+00  0.00000000E+00
  0.00000000E+00  0.00000000E+00  0.00000000E+00
  0.00000000E+00  0.00000000E+00  0.00000000E+00
  0.00000000E+00  0.00000000E+00  0.00000000E+00
  0.00000000E+00  0.00000000E+00  0.00000000E+00
  0.00000000E+00  0.00000000E+00  0.00000000E+00
  0.00000000E+00  0.00000000E+00  0.00000000E+00
  0.00000000E+00  0.00000000E+00  0.00000000E+00
  0.00000000E+00  0.00000000E+00  0.00000000E+00
