crystal structure from VMoWS2 with Hexag
   1.00000000000000     
     8.3186072157874307    4.8182704628675737    0.0000000000000000
    -8.3276894500839482    4.8341002561960886    0.0000000000000000
     0.0000000000000000    0.0000000000000000   30.0000000000000000
   V    Mo   W    S 
     3     3     3    18
Direct
  0.6535792035422663 -0.0356216416034552 -0.0007386532548488
  0.3119024115882013 -0.0344715836302485 -0.0012008283186017
  1.0158869405041944  0.3638395335723599  0.0010889730280891
  0.3096607030764996  0.6565094645442896 -0.0000115932394942
  0.0002945314768535  0.6722974537681208  0.0003142715064387
 -0.0131294533128828 -0.0316343267740273 -0.0003059168085692
  0.3160312758390958  0.3533977171582398  0.0000549074319709
  0.6997047395028253  0.3666729831722443  0.0000403303378378
  0.6983862443329120  0.6786377731210395  0.0006589917867851
  0.1004245836411371  0.2224824100900495  0.9521015575909785
  0.2258251867999336  0.1099763036442388  0.0469455634216144
  0.1053281828535091  0.5535276256783696  0.9457747571138834
  0.2112794218828480  0.4439954098504886  0.0563475057124444
  0.1161865685433906  0.8905388405859643  0.9451361020880285
  0.2246855912137451  0.7819046095739794  0.0544425835612218
  0.4421737890058416  0.2216873191855123  0.9582710612196734
  0.5572134794628507  0.1088683419466317  0.0421353163059061
  0.4508038399392310  0.5640381446611114  0.9505416831281107
  0.5569545857754203  0.4463561946000134  0.0506864078422367
  0.4425983697068847  0.8883689025407144  0.9483357919510295
  0.5541926771516856  0.7697793650173325  0.0502338602072293
  0.7813698125733733  0.2204986396341436  0.9539211825657731
  0.8850283985202173  0.1121455964820517  0.0435292675846096
  0.7854521034908032  0.5646760570034290  0.9437074985515531
  0.8969286415762852  0.4472848801074045  0.0550790889762959
  0.7757284965826541  0.8873834348359279  0.9454915889179315
  0.8937241281672107  0.7750750047116345  0.0574185999918573
 
  0.00000000E+00  0.00000000E+00  0.00000000E+00
  0.00000000E+00  0.00000000E+00  0.00000000E+00
  0.00000000E+00  0.00000000E+00  0.00000000E+00
  0.00000000E+00  0.00000000E+00  0.00000000E+00
  0.00000000E+00  0.00000000E+00  0.00000000E+00
  0.00000000E+00  0.00000000E+00  0.00000000E+00
  0.00000000E+00  0.00000000E+00  0.00000000E+00
  0.00000000E+00  0.00000000E+00  0.00000000E+00
  0.00000000E+00  0.00000000E+00  0.00000000E+00
  0.00000000E+00  0.00000000E+00  0.00000000E+00
  0.00000000E+00  0.00000000E+00  0.00000000E+00
  0.00000000E+00  0.00000000E+00  0.00000000E+00
  0.00000000E+00  0.00000000E+00  0.00000000E+00
  0.00000000E+00  0.00000000E+00  0.00000000E+00
  0.00000000E+00  0.00000000E+00  0.00000000E+00
  0.00000000E+00  0.00000000E+00  0.00000000E+00
  0.00000000E+00  0.00000000E+00  0.00000000E+00
  0.00000000E+00  0.00000000E+00  0.00000000E+00
  0.00000000E+00  0.00000000E+00  0.00000000E+00
  0.00000000E+00  0.00000000E+00  0.00000000E+00
  0.00000000E+00  0.00000000E+00  0.00000000E+00
  0.00000000E+00  0.00000000E+00  0.00000000E+00
  0.00000000E+00  0.00000000E+00  0.00000000E+00
  0.00000000E+00  0.00000000E+00  0.00000000E+00
  0.00000000E+00  0.00000000E+00  0.00000000E+00
  0.00000000E+00  0.00000000E+00  0.00000000E+00
  0.00000000E+00  0.00000000E+00  0.00000000E+00
