crystal structure from VMoWS2 with Hexag
   1.00000000000000     
     8.2710820554894067    4.7801767473826198    0.0000000000000000
    -8.2915705053460655    4.8156213769574823    0.0000000000000000
     0.0000000000000000    0.0000000000000000   30.0000000000000000
   V    Mo   W    S 
     3     3     3    18
Direct
  0.6709384693854240  0.6730242976403390  0.0002442888024711
  0.9993462752298485  0.3351939131184457  0.0002295603464691
  0.6669634688629379  0.3380526046398781 -0.0000789491653865
  0.0219880514671723  0.6857582070943000  0.0001705816578685
  0.3247045461768108 -0.0233065416373965 -0.0002043395051674
  0.6578459540149730 -0.0151852322411459  0.0001500180182409
 -0.0086999630421351 -0.0147094935820633 -0.0001699690350353
  0.3369515364990275  0.3351961987126436 -0.0005922318814029
  0.3294754221166967  0.6850577214607181  0.0004095007295470
  0.1052825936483179  0.2220031616338279  0.9498215395349350
  0.2219896001584215  0.1097998228162602  0.0504725533467257
  0.1109159013843104  0.5540625942639766  0.9481474648729040
  0.2183634702188740  0.4452366903991018  0.0499489184443464
  0.1124119319235824  0.8916159579133304  0.9449459650124570
  0.2240676515465676  0.7792114323634450  0.0574661218937790
  0.4479091312324357  0.2208004644595855  0.9502615055945212
  0.5571884416704910  0.1151149198109570  0.0497525968260139
  0.4472758561248544  0.5612259625787772  0.9505886476486685
  0.5604766231480187  0.4481946305671007  0.0501115755965357
  0.4446696839996976  0.8880408639160122  0.9446468049204481
  0.5538561821291663  0.7706313668736977  0.0525982262825039
  0.7792982928125490  0.2258702013098533  0.9512087884598983
  0.8908117572271870  0.1141555484180882  0.0498128978505837
  0.7786309572742636  0.5569916659415067  0.9516987787086378
  0.8877230096078351  0.4431083261396530  0.0488635365632765
  0.7741153710231677  0.8796285383947807  0.9470363397732449
  0.8837142375964667  0.7734406304719083  0.0524591779029141
 
  0.00000000E+00  0.00000000E+00  0.00000000E+00
  0.00000000E+00  0.00000000E+00  0.00000000E+00
  0.00000000E+00  0.00000000E+00  0.00000000E+00
  0.00000000E+00  0.00000000E+00  0.00000000E+00
  0.00000000E+00  0.00000000E+00  0.00000000E+00
  0.00000000E+00  0.00000000E+00  0.00000000E+00
  0.00000000E+00  0.00000000E+00  0.00000000E+00
  0.00000000E+00  0.00000000E+00  0.00000000E+00
  0.00000000E+00  0.00000000E+00  0.00000000E+00
  0.00000000E+00  0.00000000E+00  0.00000000E+00
  0.00000000E+00  0.00000000E+00  0.00000000E+00
  0.00000000E+00  0.00000000E+00  0.00000000E+00
  0.00000000E+00  0.00000000E+00  0.00000000E+00
  0.00000000E+00  0.00000000E+00  0.00000000E+00
  0.00000000E+00  0.00000000E+00  0.00000000E+00
  0.00000000E+00  0.00000000E+00  0.00000000E+00
  0.00000000E+00  0.00000000E+00  0.00000000E+00
  0.00000000E+00  0.00000000E+00  0.00000000E+00
  0.00000000E+00  0.00000000E+00  0.00000000E+00
  0.00000000E+00  0.00000000E+00  0.00000000E+00
  0.00000000E+00  0.00000000E+00  0.00000000E+00
  0.00000000E+00  0.00000000E+00  0.00000000E+00
  0.00000000E+00  0.00000000E+00  0.00000000E+00
  0.00000000E+00  0.00000000E+00  0.00000000E+00
  0.00000000E+00  0.00000000E+00  0.00000000E+00
  0.00000000E+00  0.00000000E+00  0.00000000E+00
  0.00000000E+00  0.00000000E+00  0.00000000E+00
