crystal structure from VMoWS2 with Hexag
   1.00000000000000     
     8.3237337896534385    4.8317573045319975    0.0000000000000000
    -8.2901018100893786    4.7736610702465141    0.0000000000000000
     0.0000000000000000    0.0000000000000000   30.0000000000000000
   V    Mo   W    S 
     3     3     3    18
Direct
  0.0361588532562924  0.6839016786277319 -0.0023165906358111
  0.0312588472321008  0.0113855138597686 -0.0014645138352881
  0.6332229610983637 -0.0091025027126952  0.0019851194828608
  0.6276870132154365  0.3152236102989937  0.0021220759413865
  0.3310572013145089  0.6797330503005086  0.0000106371061125
  0.3397240454230509  0.0027550954367629 -0.0002095951717847
  1.0387684569155173  0.3568884971551801 -0.0021361218971338
  0.3399491578955213  0.3224215670618703 -0.0002118213992104
  0.6285464176857843  0.6394794400581161  0.0020924237697782
  0.1116773040475560  0.2165444633231158  0.9457846738843226
  0.2192684561401193  0.1078037123504930  0.0537159471302612
  0.1152980344234085  0.5648128405041671  0.9438224529324722
  0.2323704269537696  0.4504382357554182  0.0527644167273551
  0.1100077547093245  0.8874128414221314  0.9463438269152717
  0.2188626634902783  0.7789205851558082  0.0536804874317805
  0.4382684733717498  0.2167596037960516  0.9438417178103258
  0.5533816260023088  0.1062476698595632  0.0561670314508877
  0.4347042636331854  0.5495445492465456  0.9469008813358663
  0.5463863963820103  0.4368138807725889  0.0581165484147677
  0.4498651131798824  0.8937963864256203  0.9457935696395390
  0.5569117098091962  0.7840834626029792  0.0540984411578064
  0.7782609518052374  0.2217439441290266  0.9557802637052502
  0.8890927897594579  0.1112760373486311  0.0425021997496345
  0.7803344366608310  0.5564271028578498  0.9556552057514456
  0.8901792186996629  0.4482033619715436  0.0433299610595465
  0.7767362357686531  0.8892627777709512  0.9584767152119277
  0.8902356445637870  0.7754370480988438  0.0433539455306145
 
  0.00000000E+00  0.00000000E+00  0.00000000E+00
  0.00000000E+00  0.00000000E+00  0.00000000E+00
  0.00000000E+00  0.00000000E+00  0.00000000E+00
  0.00000000E+00  0.00000000E+00  0.00000000E+00
  0.00000000E+00  0.00000000E+00  0.00000000E+00
  0.00000000E+00  0.00000000E+00  0.00000000E+00
  0.00000000E+00  0.00000000E+00  0.00000000E+00
  0.00000000E+00  0.00000000E+00  0.00000000E+00
  0.00000000E+00  0.00000000E+00  0.00000000E+00
  0.00000000E+00  0.00000000E+00  0.00000000E+00
  0.00000000E+00  0.00000000E+00  0.00000000E+00
  0.00000000E+00  0.00000000E+00  0.00000000E+00
  0.00000000E+00  0.00000000E+00  0.00000000E+00
  0.00000000E+00  0.00000000E+00  0.00000000E+00
  0.00000000E+00  0.00000000E+00  0.00000000E+00
  0.00000000E+00  0.00000000E+00  0.00000000E+00
  0.00000000E+00  0.00000000E+00  0.00000000E+00
  0.00000000E+00  0.00000000E+00  0.00000000E+00
  0.00000000E+00  0.00000000E+00  0.00000000E+00
  0.00000000E+00  0.00000000E+00  0.00000000E+00
  0.00000000E+00  0.00000000E+00  0.00000000E+00
  0.00000000E+00  0.00000000E+00  0.00000000E+00
  0.00000000E+00  0.00000000E+00  0.00000000E+00
  0.00000000E+00  0.00000000E+00  0.00000000E+00
  0.00000000E+00  0.00000000E+00  0.00000000E+00
  0.00000000E+00  0.00000000E+00  0.00000000E+00
  0.00000000E+00  0.00000000E+00  0.00000000E+00
