crystal structure from VMoWS2 with Hexag
   1.00000000000000     
     8.3097132964990603    4.8291624668466335    0.0000000000000000
    -8.2827167429004938    4.7824282435540315    0.0000000000000000
     0.0000000000000000    0.0000000000000000   30.0000000000000000
   V    Mo   W    S 
     3     3     3    18
Direct
  0.2979425688651862 -0.0177206936697777  0.0014382024749996
  0.2979282182133997  0.3155849472150811  0.0014373967949284
  0.2979669704559315  0.6489419860149138  0.0014380470988257
  0.9903364019153550  0.3284778758262678  0.0007908924078878
 -0.0096415576527897 -0.0048667866334638  0.0007900036169289
 -0.0096731360454158  0.6618045840096543  0.0007908612597490
  0.7044208423581484  0.0188439414859945 -0.0021421304389719
  0.7044160523354481  0.3521772033682012 -0.0021405795521660
  0.7044176595276245  0.6855071244369306 -0.0021413981687259
  0.1116128418237052  0.2224369841454110  0.9475783143741834
  0.2228695981981221  0.1114091126801522  0.0530468903890955
  0.1115996960776717  0.5557638301209318  0.9475731183410444
  0.2228647576222432  0.4447241815441093  0.0530481895586319
  0.1116103136062657  0.8890962969108545  0.9475741952807981
  0.2228628213121566  0.7780799964137223  0.0530493874347094
  0.4429439904174766  0.2214396565221368  0.9569619614429181
  0.5539503019243609  0.1102744580338492  0.0437381982910461
  0.4429519796351255  0.5547665466402044  0.9569605287916088
  0.5539450947826251  0.4436103086391803  0.0437387374274122
  0.4429556407328432  0.8881164882873797  0.9569596240607132
  0.5539643558257777  0.7769521650282003  0.0437412437754708
  0.7825596918713731  0.2245814385658160  0.9425841968116947
  0.8927704510122513  0.1130247825612822  0.0560035819795020
  0.7825579575908912  0.5579074019260114  0.9425838938713340
  0.8927565028967603  0.4463549770404163  0.0560060633762660
  0.7825620187572927  0.8912418475923811  0.9425838215125061
  0.8927624193771470  0.7796837987717347  0.0560066569876011
 
  0.00000000E+00  0.00000000E+00  0.00000000E+00
  0.00000000E+00  0.00000000E+00  0.00000000E+00
  0.00000000E+00  0.00000000E+00  0.00000000E+00
  0.00000000E+00  0.00000000E+00  0.00000000E+00
  0.00000000E+00  0.00000000E+00  0.00000000E+00
  0.00000000E+00  0.00000000E+00  0.00000000E+00
  0.00000000E+00  0.00000000E+00  0.00000000E+00
  0.00000000E+00  0.00000000E+00  0.00000000E+00
  0.00000000E+00  0.00000000E+00  0.00000000E+00
  0.00000000E+00  0.00000000E+00  0.00000000E+00
  0.00000000E+00  0.00000000E+00  0.00000000E+00
  0.00000000E+00  0.00000000E+00  0.00000000E+00
  0.00000000E+00  0.00000000E+00  0.00000000E+00
  0.00000000E+00  0.00000000E+00  0.00000000E+00
  0.00000000E+00  0.00000000E+00  0.00000000E+00
  0.00000000E+00  0.00000000E+00  0.00000000E+00
  0.00000000E+00  0.00000000E+00  0.00000000E+00
  0.00000000E+00  0.00000000E+00  0.00000000E+00
  0.00000000E+00  0.00000000E+00  0.00000000E+00
  0.00000000E+00  0.00000000E+00  0.00000000E+00
  0.00000000E+00  0.00000000E+00  0.00000000E+00
  0.00000000E+00  0.00000000E+00  0.00000000E+00
  0.00000000E+00  0.00000000E+00  0.00000000E+00
  0.00000000E+00  0.00000000E+00  0.00000000E+00
  0.00000000E+00  0.00000000E+00  0.00000000E+00
  0.00000000E+00  0.00000000E+00  0.00000000E+00
  0.00000000E+00  0.00000000E+00  0.00000000E+00
