crystal structure from VMoWS2 with Hexag
   1.00000000000000     
     8.3200439115927818    4.8024046098189404    0.0000000000000000
    -8.3456407592026700    4.8466980191032123    0.0000000000000000
     0.0000000000000000    0.0000000000000000   30.0000000000000000
   V    Mo   W    S 
     3     3     3    18
Direct
  0.6760255910576604  0.0006440850681060  0.0011719589178259
  0.3228958401928402 -0.0023854168761117  0.0012609719036575
 -0.0176282434492822 -0.0353247128956505 -0.0014783468913486
 -0.0154744891972522  0.6520663991260235 -0.0004201608247876
  0.6818750905673489  0.3625136277682677  0.0008891866446889
  0.6645484256933037  0.6518469500055697 -0.0004412697501754
  0.9861571885742393  0.3537328678742048  0.0000903905103703
  0.3678297731293845  0.3543766584232556  0.0001092757740973
  0.3260110674833923  0.6463465966646160 -0.0006397396424550
  0.1100362317849543  0.2199337167513388  0.9595542849141996
  0.2168604541748831  0.1079886025603533  0.0470398890411306
  0.1099438343355804  0.5576403555945971  0.9454687243448757
  0.2194012861235806  0.4384539001174302  0.0517852723454849
  0.1120572804990456  0.8896781044060668  0.9488382040892821
  0.2249936870329733  0.7791880058643329  0.0482813779400490
  0.4500314038244312  0.2236420865337466  0.9497080028172100
  0.5556481315757599  0.1119394194478870  0.0459978893558384
  0.4472897186503174  0.5569707335861190  0.9448524216586903
  0.5602291914195228  0.4483515794832845  0.0573724672631729
  0.4455791445032687  0.8910975087056970  0.9524893824839853
  0.5549870012951547  0.7804571476139298  0.0485261972062479
  0.7736532617803142  0.2238586805804640  0.9495260233866534
  0.8911733116877233  0.1082071241701352  0.0472229266054494
  0.7794111588997805  0.5599338351954160  0.9434458181494784
  0.8884181246731963  0.4485611188828010  0.0573670926993785
  0.7773471953361738  0.8900890450240668  0.9489449464768145
  0.8889137917886878  0.7784064338016040  0.0530367117801775
 
  0.00000000E+00  0.00000000E+00  0.00000000E+00
  0.00000000E+00  0.00000000E+00  0.00000000E+00
  0.00000000E+00  0.00000000E+00  0.00000000E+00
  0.00000000E+00  0.00000000E+00  0.00000000E+00
  0.00000000E+00  0.00000000E+00  0.00000000E+00
  0.00000000E+00  0.00000000E+00  0.00000000E+00
  0.00000000E+00  0.00000000E+00  0.00000000E+00
  0.00000000E+00  0.00000000E+00  0.00000000E+00
  0.00000000E+00  0.00000000E+00  0.00000000E+00
  0.00000000E+00  0.00000000E+00  0.00000000E+00
  0.00000000E+00  0.00000000E+00  0.00000000E+00
  0.00000000E+00  0.00000000E+00  0.00000000E+00
  0.00000000E+00  0.00000000E+00  0.00000000E+00
  0.00000000E+00  0.00000000E+00  0.00000000E+00
  0.00000000E+00  0.00000000E+00  0.00000000E+00
  0.00000000E+00  0.00000000E+00  0.00000000E+00
  0.00000000E+00  0.00000000E+00  0.00000000E+00
  0.00000000E+00  0.00000000E+00  0.00000000E+00
  0.00000000E+00  0.00000000E+00  0.00000000E+00
  0.00000000E+00  0.00000000E+00  0.00000000E+00
  0.00000000E+00  0.00000000E+00  0.00000000E+00
  0.00000000E+00  0.00000000E+00  0.00000000E+00
  0.00000000E+00  0.00000000E+00  0.00000000E+00
  0.00000000E+00  0.00000000E+00  0.00000000E+00
  0.00000000E+00  0.00000000E+00  0.00000000E+00
  0.00000000E+00  0.00000000E+00  0.00000000E+00
  0.00000000E+00  0.00000000E+00  0.00000000E+00
