crystal structure from VMoWS2 with Hexag
   1.00000000000000     
     8.3612194834638398    4.8489443550168785    0.0000000000000000
    -8.3424400205876434    4.8167278890409966    0.0000000000000000
     0.0000000000000000    0.0000000000000000   30.0000000000000000
   V    Mo   W    S 
     3     3     3    18
Direct
  0.3131952569211784  0.3103875477484997  0.0000489836822681
  0.7005636981847120  0.6839878963416552 -0.0017891004133688
  0.6275708384257714  0.3137640492323717  0.0026161292375608
  0.0044473544188525  0.0039873674447195 -0.0004697255702720
  0.3044912312022194 -0.0104030334231462  0.0008999276629283
  1.0176127177161305  0.3188382668574380 -0.0007078273899691
  0.0176607399303585  0.6946597177956737 -0.0003241158631961
  0.2955425286908266  0.6579275053957361  0.0026774937517371
  0.7104979309329126  0.0171476238167322 -0.0017960859204611
  0.1202959261561914  0.2219954411111470  0.9442478630409787
  0.2242617710085385  0.1166025656859373  0.0547827653033799
  0.1037211781079749  0.5536275736068255  0.9471036461728809
  0.2279384824843284  0.4425576323703131  0.0532437231296013
  0.1094219033444333  0.8907232497535582  0.9432094869688246
  0.2148656390540485  0.7798018433006324  0.0577972261141834
  0.4364690197130174  0.2203158610543510  0.9487397670173733
  0.5553036425995315  0.1041942492836252  0.0480087590272362
  0.4463238087166967  0.5584162155116255  0.9591344218559595
  0.5512431500810304  0.4478178469747109  0.0467407575807653
  0.4513666446499258  0.8913866375137030  0.9560071075990737
  0.5576401299001174  0.7788550893169137  0.0442258612234911
  0.7797389132574658  0.2295509411548196  0.9499413010193629
  0.9000852330221846  0.1147740229232877  0.0553751299205229
  0.7740564565632552  0.5509160680702988  0.9516083560758073
  0.8810274456456810  0.4401767944491699  0.0403410105636687
  0.7835464506034873  0.8873520430226335  0.9451065129170233
  0.8893263621061097  0.7788534371643346  0.0532305244926343
 
  0.00000000E+00  0.00000000E+00  0.00000000E+00
  0.00000000E+00  0.00000000E+00  0.00000000E+00
  0.00000000E+00  0.00000000E+00  0.00000000E+00
  0.00000000E+00  0.00000000E+00  0.00000000E+00
  0.00000000E+00  0.00000000E+00  0.00000000E+00
  0.00000000E+00  0.00000000E+00  0.00000000E+00
  0.00000000E+00  0.00000000E+00  0.00000000E+00
  0.00000000E+00  0.00000000E+00  0.00000000E+00
  0.00000000E+00  0.00000000E+00  0.00000000E+00
  0.00000000E+00  0.00000000E+00  0.00000000E+00
  0.00000000E+00  0.00000000E+00  0.00000000E+00
  0.00000000E+00  0.00000000E+00  0.00000000E+00
  0.00000000E+00  0.00000000E+00  0.00000000E+00
  0.00000000E+00  0.00000000E+00  0.00000000E+00
  0.00000000E+00  0.00000000E+00  0.00000000E+00
  0.00000000E+00  0.00000000E+00  0.00000000E+00
  0.00000000E+00  0.00000000E+00  0.00000000E+00
  0.00000000E+00  0.00000000E+00  0.00000000E+00
  0.00000000E+00  0.00000000E+00  0.00000000E+00
  0.00000000E+00  0.00000000E+00  0.00000000E+00
  0.00000000E+00  0.00000000E+00  0.00000000E+00
  0.00000000E+00  0.00000000E+00  0.00000000E+00
  0.00000000E+00  0.00000000E+00  0.00000000E+00
  0.00000000E+00  0.00000000E+00  0.00000000E+00
  0.00000000E+00  0.00000000E+00  0.00000000E+00
  0.00000000E+00  0.00000000E+00  0.00000000E+00
  0.00000000E+00  0.00000000E+00  0.00000000E+00
