crystal structure from VMoWS2 with Hexag
   1.00000000000000     
     8.3363535087662228    4.8365601758433758    0.0000000000000000
    -8.3280059161031055    4.8221035238209007    0.0000000000000000
     0.0000000000000000    0.0000000000000000   30.0000000000000000
   V    Mo   W    S 
     3     3     3    18
Direct
  0.3061720744785685  0.3153698230475622  0.0002395411141286
  0.2969829116582611  0.6471711675881230  0.0017054224960054
  0.6605117747178367  0.2976833886987701 -0.0013737955270001
  0.7017834432984945  0.0153480654226646 -0.0002788415588131
  0.9910106884808888  0.3068943482661923 -0.0007045998234065
 -0.0006626610692111  0.0021545592965174 -0.0001081491148758
  0.0154702132705657  0.7023720998636074  0.0004489662861846
  0.3107820914845511 -0.0086185345710558 -0.0000634805891109
  0.7006479725117449  0.7025831042814349  0.0002209941221385
  0.1163708733306026  0.2263522345620028  0.9451395930588932
  0.2284157978442401  0.1180907830242459  0.0535812396085697
  0.1029784182756872  0.5551118363335618  0.9505383522553942
  0.2192041740469576  0.4397985145126126  0.0516479981134328
  0.1124232557654948  0.8966897570009625  0.9435235819064085
  0.2223943295423934  0.7768943593132521  0.0546792078369518
  0.4422631561477364  0.2236109546165425  0.9506722841263938
  0.5560675500194520  0.1046055712050504  0.0498903044839238
  0.4435002363378724  0.5581403047329765  0.9575051022526833
  0.5570685955305152  0.4435562117063143  0.0409216937034264
  0.4453361803941558  0.8823176265977858  0.9569484381023577
  0.5513905824694794  0.7764123346091298  0.0478896422041676
  0.7767113459278112  0.2204080154044380  0.9443648133822931
  0.8962124890420420  0.1114981143608706  0.0565746936634961
  0.7776896790808154  0.5534777250042471  0.9524238137285963
  0.8844386060525605  0.4470018505296652  0.0437463563607479
  0.7860670305631338  0.8967884974365420  0.9432181516756469
  0.8969836442343371  0.7865017406335502  0.0566485753313584
 
  0.00000000E+00  0.00000000E+00  0.00000000E+00
  0.00000000E+00  0.00000000E+00  0.00000000E+00
  0.00000000E+00  0.00000000E+00  0.00000000E+00
  0.00000000E+00  0.00000000E+00  0.00000000E+00
  0.00000000E+00  0.00000000E+00  0.00000000E+00
  0.00000000E+00  0.00000000E+00  0.00000000E+00
  0.00000000E+00  0.00000000E+00  0.00000000E+00
  0.00000000E+00  0.00000000E+00  0.00000000E+00
  0.00000000E+00  0.00000000E+00  0.00000000E+00
  0.00000000E+00  0.00000000E+00  0.00000000E+00
  0.00000000E+00  0.00000000E+00  0.00000000E+00
  0.00000000E+00  0.00000000E+00  0.00000000E+00
  0.00000000E+00  0.00000000E+00  0.00000000E+00
  0.00000000E+00  0.00000000E+00  0.00000000E+00
  0.00000000E+00  0.00000000E+00  0.00000000E+00
  0.00000000E+00  0.00000000E+00  0.00000000E+00
  0.00000000E+00  0.00000000E+00  0.00000000E+00
  0.00000000E+00  0.00000000E+00  0.00000000E+00
  0.00000000E+00  0.00000000E+00  0.00000000E+00
  0.00000000E+00  0.00000000E+00  0.00000000E+00
  0.00000000E+00  0.00000000E+00  0.00000000E+00
  0.00000000E+00  0.00000000E+00  0.00000000E+00
  0.00000000E+00  0.00000000E+00  0.00000000E+00
  0.00000000E+00  0.00000000E+00  0.00000000E+00
  0.00000000E+00  0.00000000E+00  0.00000000E+00
  0.00000000E+00  0.00000000E+00  0.00000000E+00
  0.00000000E+00  0.00000000E+00  0.00000000E+00
