crystal structure from VMoWS2 with Hexag
   1.00000000000000     
     8.3167016253054324    4.8019202639793628    0.0000000000000000
    -8.3447238369572521    4.8504358942702259    0.0000000000000000
     0.0000000000000000    0.0000000000000000   30.0000000000000000
   V    Mo   W    S 
     3     3     3    18
Direct
  0.3158129930384454  0.6315460757913121 -0.0015060423471699
  0.0092447552262507  0.6675013884704393  0.0012737570848210
  0.6576627544434867  0.6646778042847784  0.0012352187998710
  0.3183024056876808  0.3182829359094740 -0.0004235365539447
  0.9989032594478306  0.3180758330869170 -0.0004311408029604
  0.0146725409246433  0.0289706481840007  0.0008146126461672
  0.3191733145119162  0.0203229101945953  0.0000345556741318
  0.7013640185322846  0.0208943463672414  0.0000271292488968
  0.6575888495944126  0.3139456232156362 -0.0004931530507473
  0.1129107482486408  0.2264612886443358  0.9434150117218563
  0.2214000067957434  0.1149865743359580  0.0573477627757434
  0.1105551343021776  0.5566122199024733  0.9490494999690122
  0.2224217135883818  0.4451481160486769  0.0530069296848902
  0.1066894205560750  0.8901478099442000  0.9494906911203500
  0.2244049558718782  0.7749594293368240  0.0472131627907300
  0.4431334664588141  0.2241073130923505  0.9453468213946419
  0.5525445444977913  0.1049800680357927  0.0515963100272026
  0.4454224421889169  0.5561748040676313  0.9489440262492701
  0.5578465374847349  0.4460224840271680  0.0485034962595370
  0.4434667703939566  0.8868685926071505  0.9595371147207600
  0.5505178155145332  0.7748528377082705  0.0469931285132249
  0.7806366322914214  0.2240564819449445  0.9451535309807223
  0.8935253730700502  0.1149648956573801  0.0573432512970887
  0.7789904904813448  0.5578433257724985  0.9524111558658863
  0.8884593786396340  0.4469635855698313  0.0483778696524095
  0.7833572413781341  0.8902003972729057  0.9496030097407500
  0.8892068902677954  0.7786466640047757  0.0461357257368435
 
  0.00000000E+00  0.00000000E+00  0.00000000E+00
  0.00000000E+00  0.00000000E+00  0.00000000E+00
  0.00000000E+00  0.00000000E+00  0.00000000E+00
  0.00000000E+00  0.00000000E+00  0.00000000E+00
  0.00000000E+00  0.00000000E+00  0.00000000E+00
  0.00000000E+00  0.00000000E+00  0.00000000E+00
  0.00000000E+00  0.00000000E+00  0.00000000E+00
  0.00000000E+00  0.00000000E+00  0.00000000E+00
  0.00000000E+00  0.00000000E+00  0.00000000E+00
  0.00000000E+00  0.00000000E+00  0.00000000E+00
  0.00000000E+00  0.00000000E+00  0.00000000E+00
  0.00000000E+00  0.00000000E+00  0.00000000E+00
  0.00000000E+00  0.00000000E+00  0.00000000E+00
  0.00000000E+00  0.00000000E+00  0.00000000E+00
  0.00000000E+00  0.00000000E+00  0.00000000E+00
  0.00000000E+00  0.00000000E+00  0.00000000E+00
  0.00000000E+00  0.00000000E+00  0.00000000E+00
  0.00000000E+00  0.00000000E+00  0.00000000E+00
  0.00000000E+00  0.00000000E+00  0.00000000E+00
  0.00000000E+00  0.00000000E+00  0.00000000E+00
  0.00000000E+00  0.00000000E+00  0.00000000E+00
  0.00000000E+00  0.00000000E+00  0.00000000E+00
  0.00000000E+00  0.00000000E+00  0.00000000E+00
  0.00000000E+00  0.00000000E+00  0.00000000E+00
  0.00000000E+00  0.00000000E+00  0.00000000E+00
  0.00000000E+00  0.00000000E+00  0.00000000E+00
  0.00000000E+00  0.00000000E+00  0.00000000E+00
