crystal structure from VMoWS2 with Hexag
   1.00000000000000     
     8.3182556344537861    4.7946132239847650    0.0000000000000000
    -8.3549914533285410    4.8580986523083967    0.0000000000000000
     0.0000000000000000    0.0000000000000000   30.0000000000000000
   V    Mo   W    S 
     3     3     3    18
Direct
  0.3520097742198222  0.0073137169362875  0.0005615138367464
  0.0125789823587023  0.7040399956505609  0.0011513370469637
  0.6593724406059855  0.6573217901659040 -0.0021123805982203
 -0.0075049700982118  0.0162762539417353  0.0010358700559318
  0.6481848501937761  0.3005143728626862 -0.0009450996081785
  0.6767196055739571  0.0123621984103106  0.0009413104552133
  0.9715714751903687  0.2996925581872147 -0.0009742806762401
  0.3337485429984621  0.3016326790829933 -0.0009246719119626
  0.3549731500609403  0.7057907310303537  0.0014142178963500
  0.1104734954096905  0.2234827206071114  0.9458420134452737
  0.2224791860716769  0.1011039244628977  0.0520889982946799
  0.1076753008318175  0.5575961089707866  0.9570529799372975
  0.2245966472508647  0.4462106821742706  0.0422765705073514
  0.1157133769136140  0.8978733030502762  0.9509242562165064
  0.2240807412143157  0.7880818258071818  0.0522811030472776
  0.4409231720451814  0.2105292212764494  0.9438774433843150
  0.5506410249711632  0.1030896562808402  0.0551946247633862
  0.4414227529665246  0.5546048834339289  0.9520204948252291
  0.5547686131424510  0.4384406467048652  0.0489110402018021
  0.4487458303341394  0.9002140759596393  0.9463561724831421
  0.5635826107992378  0.7758246452513838  0.0521638796024134
  0.7758571511237990  0.2180940113045534  0.9430554733558228
  0.8863866818528046  0.1130710085363796  0.0576847466500326
  0.7818753317939433  0.5564054437072128  0.9540259855056946
  0.8907211610479835  0.4501168990141680  0.0455600692703362
  0.7751537443163037  0.8834989605924570  0.9500571114870469
  0.8814637802476765  0.7750321400751240  0.0504791197257832
 
  0.00000000E+00  0.00000000E+00  0.00000000E+00
  0.00000000E+00  0.00000000E+00  0.00000000E+00
  0.00000000E+00  0.00000000E+00  0.00000000E+00
  0.00000000E+00  0.00000000E+00  0.00000000E+00
  0.00000000E+00  0.00000000E+00  0.00000000E+00
  0.00000000E+00  0.00000000E+00  0.00000000E+00
  0.00000000E+00  0.00000000E+00  0.00000000E+00
  0.00000000E+00  0.00000000E+00  0.00000000E+00
  0.00000000E+00  0.00000000E+00  0.00000000E+00
  0.00000000E+00  0.00000000E+00  0.00000000E+00
  0.00000000E+00  0.00000000E+00  0.00000000E+00
  0.00000000E+00  0.00000000E+00  0.00000000E+00
  0.00000000E+00  0.00000000E+00  0.00000000E+00
  0.00000000E+00  0.00000000E+00  0.00000000E+00
  0.00000000E+00  0.00000000E+00  0.00000000E+00
  0.00000000E+00  0.00000000E+00  0.00000000E+00
  0.00000000E+00  0.00000000E+00  0.00000000E+00
  0.00000000E+00  0.00000000E+00  0.00000000E+00
  0.00000000E+00  0.00000000E+00  0.00000000E+00
  0.00000000E+00  0.00000000E+00  0.00000000E+00
  0.00000000E+00  0.00000000E+00  0.00000000E+00
  0.00000000E+00  0.00000000E+00  0.00000000E+00
  0.00000000E+00  0.00000000E+00  0.00000000E+00
  0.00000000E+00  0.00000000E+00  0.00000000E+00
  0.00000000E+00  0.00000000E+00  0.00000000E+00
  0.00000000E+00  0.00000000E+00  0.00000000E+00
  0.00000000E+00  0.00000000E+00  0.00000000E+00
