crystal structure from VMoWS2 with Hexag
   1.00000000000000     
     8.3873325544004320    4.8394738805282316    0.0000000000000000
    -8.3614406710891558    4.7941405840561586    0.0000000000000000
     0.0000000000000000    0.0000000000000000   30.0000000000000000
   V    Mo   W    S 
     3     3     3    18
Direct
  0.6322609487889373  0.3150393188091132  0.0000506229877460
  0.6403799764352145  0.6585607025540816 -0.0001336043581832
  0.3184068452809132  0.3434801211348324 -0.0008522129072734
  0.3523240582878585 -0.0217799761797917  0.0014874048487258
  1.0261756967842259  0.3422917548016706  0.0006382076779927
  0.3258949563577168  0.6646315437055766  0.0001033676039653
 -0.0104432529828737  0.0287791255235258 -0.0019028590666550
  0.0348181722197039  0.6628735836334907  0.0015751665071225
  0.6595159774093458  0.0021332556479154 -0.0009663279846188
  0.1176141744987559  0.2304188517832327  0.9438605439503213
  0.2226887300620863  0.1090695801848966  0.0438529135561949
  0.1161439722002442  0.5548150503520162  0.9442868853547653
  0.2311721204001634  0.4454197601806602  0.0545612852435088
  0.1123378304743529  0.8913563984822593  0.9539897988489425
  0.2313586959533696  0.7745805613641873  0.0580047463440477
  0.4338375833547531  0.2135174273893140  0.9512461411969357
  0.5612279005566371  0.1164774045014492  0.0541889103519756
  0.4446020673411725  0.5495784309392692  0.9474898740025447
  0.5447524386554716  0.4413185272824832  0.0487474036101195
  0.4497064528693939  0.8817360707511663  0.9449852862419668
  0.5618803133965867  0.7790307861231685  0.0514932670694183
  0.7770404256392616  0.2325609468803022  0.9530218850537779
  0.8880480613332508  0.1197929145541527  0.0535223549996625
  0.7796990991618570  0.5551551903718550  0.9578260278114751
  0.8839636779488826  0.4430133158695505  0.0487691558425698
  0.7733940087197207  0.8857377977756914  0.9480187864126464
  0.8894135222899715  0.7786260090615180  0.0421348680002994
 
  0.00000000E+00  0.00000000E+00  0.00000000E+00
  0.00000000E+00  0.00000000E+00  0.00000000E+00
  0.00000000E+00  0.00000000E+00  0.00000000E+00
  0.00000000E+00  0.00000000E+00  0.00000000E+00
  0.00000000E+00  0.00000000E+00  0.00000000E+00
  0.00000000E+00  0.00000000E+00  0.00000000E+00
  0.00000000E+00  0.00000000E+00  0.00000000E+00
  0.00000000E+00  0.00000000E+00  0.00000000E+00
  0.00000000E+00  0.00000000E+00  0.00000000E+00
  0.00000000E+00  0.00000000E+00  0.00000000E+00
  0.00000000E+00  0.00000000E+00  0.00000000E+00
  0.00000000E+00  0.00000000E+00  0.00000000E+00
  0.00000000E+00  0.00000000E+00  0.00000000E+00
  0.00000000E+00  0.00000000E+00  0.00000000E+00
  0.00000000E+00  0.00000000E+00  0.00000000E+00
  0.00000000E+00  0.00000000E+00  0.00000000E+00
  0.00000000E+00  0.00000000E+00  0.00000000E+00
  0.00000000E+00  0.00000000E+00  0.00000000E+00
  0.00000000E+00  0.00000000E+00  0.00000000E+00
  0.00000000E+00  0.00000000E+00  0.00000000E+00
  0.00000000E+00  0.00000000E+00  0.00000000E+00
  0.00000000E+00  0.00000000E+00  0.00000000E+00
  0.00000000E+00  0.00000000E+00  0.00000000E+00
  0.00000000E+00  0.00000000E+00  0.00000000E+00
  0.00000000E+00  0.00000000E+00  0.00000000E+00
  0.00000000E+00  0.00000000E+00  0.00000000E+00
  0.00000000E+00  0.00000000E+00  0.00000000E+00
